*SPEF "ieee 1481-1999"
*DESIGN "seq_detector_0011"
*DATE "22:38:30 Monday April 27, 2026"
*VENDOR "The OpenROAD Project"
*PROGRAM "OpenROAD"
*VERSION "26Q2-339-g0504146ce6"
*DESIGN_FLOW "NAME_SCOPE LOCAL" "PIN_CAP NONE"
*DIVIDER /
*DELIMITER :
*BUS_DELIMITER []
*T_UNIT 1 NS
*C_UNIT 1 PF
*R_UNIT 1 OHM
*L_UNIT 1 HENRY

*NAME_MAP
*1 _00_
*2 _01_
*3 _02_
*4 _03_
*5 _04_
*6 _05_
*7 clk
*8 net1
*9 net3
*10 match_d
*11 net2
*12 shift_reg\[0\]
*13 shift_reg\[1\]
*14 shift_reg\[2\]
*17 data_in
*18 reset
*19 detected
*20 clknet_0_clk
*21 clknet_1_0__leaf_clk
*22 clknet_1_1__leaf_clk
*23 _06_
*24 _07_
*25 _08_
*26 _09_
*27 _10_
*28 _11_
*29 detected\$_SDFF_PP0_
*30 match_d\$_SDFF_PP0_
*31 shift_reg\[0\]\$_SDFF_PP0_
*32 shift_reg\[1\]\$_SDFF_PP0_
*33 shift_reg\[2\]\$_SDFF_PP0_
*34 TAP_TAPCELL_ROW_0_0
*35 TAP_TAPCELL_ROW_0_1
*36 TAP_TAPCELL_ROW_1_2
*37 TAP_TAPCELL_ROW_2_3
*38 TAP_TAPCELL_ROW_3_4
*39 TAP_TAPCELL_ROW_4_5
*40 TAP_TAPCELL_ROW_5_6
*41 TAP_TAPCELL_ROW_6_7
*42 TAP_TAPCELL_ROW_7_8
*43 TAP_TAPCELL_ROW_8_9
*44 TAP_TAPCELL_ROW_9_10
*45 TAP_TAPCELL_ROW_10_11
*46 TAP_TAPCELL_ROW_11_12
*47 TAP_TAPCELL_ROW_12_13
*48 TAP_TAPCELL_ROW_12_14
*49 input1
*50 input2
*51 output3
*52 clkbuf_0_clk
*53 clkbuf_1_0__f_clk
*54 clkbuf_1_1__f_clk
*55 clkload0
*56 FILLER_0_0
*57 FILLER_0_8
*58 FILLER_0_16
*59 FILLER_0_24
*60 FILLER_0_28
*61 FILLER_0_31
*62 FILLER_0_39
*63 FILLER_0_47
*64 FILLER_0_55
*65 FILLER_0_59
*66 FILLER_0_61
*67 FILLER_0_69
*68 FILLER_0_77
*69 FILLER_1_0
*70 FILLER_1_8
*71 FILLER_1_16
*72 FILLER_1_24
*73 FILLER_1_32
*74 FILLER_1_40
*75 FILLER_1_48
*76 FILLER_1_56
*77 FILLER_1_61
*78 FILLER_1_69
*79 FILLER_1_77
*80 FILLER_2_0
*81 FILLER_2_8
*82 FILLER_2_16
*83 FILLER_2_24
*84 FILLER_2_28
*85 FILLER_2_31
*86 FILLER_2_39
*87 FILLER_2_47
*88 FILLER_2_55
*89 FILLER_2_63
*90 FILLER_2_71
*91 FILLER_2_79
*92 FILLER_3_0
*93 FILLER_3_4
*94 FILLER_3_41
*95 FILLER_3_49
*96 FILLER_3_57
*97 FILLER_3_59
*98 FILLER_3_61
*99 FILLER_3_69
*100 FILLER_3_77
*101 FILLER_4_0
*102 FILLER_4_8
*103 FILLER_4_16
*104 FILLER_4_20
*105 FILLER_4_22
*106 FILLER_4_31
*107 FILLER_4_39
*108 FILLER_4_47
*109 FILLER_4_55
*110 FILLER_4_63
*111 FILLER_4_71
*112 FILLER_4_79
*113 FILLER_5_0
*114 FILLER_5_4
*115 FILLER_5_12
*116 FILLER_5_20
*117 FILLER_5_28
*118 FILLER_5_36
*119 FILLER_5_44
*120 FILLER_5_52
*121 FILLER_5_61
*122 FILLER_5_69
*123 FILLER_5_77
*124 FILLER_6_0
*125 FILLER_6_8
*126 FILLER_6_16
*127 FILLER_6_24
*128 FILLER_6_28
*129 FILLER_6_31
*130 FILLER_6_39
*131 FILLER_6_59
*132 FILLER_6_68
*133 FILLER_6_76
*134 FILLER_6_80
*135 FILLER_7_0
*136 FILLER_7_8
*137 FILLER_7_16
*138 FILLER_7_24
*139 FILLER_7_31
*140 FILLER_7_39
*141 FILLER_7_43
*142 FILLER_7_51
*143 FILLER_7_59
*144 FILLER_7_61
*145 FILLER_7_69
*146 FILLER_7_77
*147 FILLER_8_0
*148 FILLER_8_10
*149 FILLER_8_31
*150 FILLER_8_55
*151 FILLER_8_63
*152 FILLER_8_71
*153 FILLER_8_79
*154 FILLER_9_0
*155 FILLER_9_10
*156 FILLER_9_27
*157 FILLER_9_35
*158 FILLER_9_43
*159 FILLER_9_45
*160 FILLER_9_49
*161 FILLER_9_57
*162 FILLER_9_59
*163 FILLER_9_61
*164 FILLER_9_69
*165 FILLER_9_77
*166 FILLER_10_0
*167 FILLER_10_8
*168 FILLER_10_16
*169 FILLER_10_24
*170 FILLER_10_28
*171 FILLER_10_31
*172 FILLER_10_39
*173 FILLER_10_47
*174 FILLER_10_55
*175 FILLER_10_63
*176 FILLER_10_71
*177 FILLER_10_79
*178 FILLER_11_0
*179 FILLER_11_8
*180 FILLER_11_16
*181 FILLER_11_24
*182 FILLER_11_32
*183 FILLER_11_40
*184 FILLER_11_48
*185 FILLER_11_56
*186 FILLER_11_61
*187 FILLER_11_69
*188 FILLER_11_77
*189 FILLER_12_0
*190 FILLER_12_8
*191 FILLER_12_16
*192 FILLER_12_24
*193 FILLER_12_28
*194 FILLER_12_31
*195 FILLER_12_39
*196 FILLER_12_47
*197 FILLER_12_55
*198 FILLER_12_59
*199 FILLER_12_61
*200 FILLER_12_69
*201 FILLER_12_77

*PORTS
clk I
data_in I
detected O
reset I

*D_NET *1 0.00310252
*CONN
*I *28:B I *D sky130_fd_sc_hd__and3_1
*I *32:D I *D sky130_fd_sc_hd__dfxtp_1
*I *23:Y O *D sky130_fd_sc_hd__nor2b_2
*CAP
1 *28:B 0.000279814
2 *32:D 0.000620451
3 *23:Y 0.000900265
4 *28:B *28:A 4.34469e-05
5 *28:B *6:18 4.17531e-06
6 *32:D *26:A_N 0.000560047
7 *32:D *26:B 0
8 *32:D *31:CLK 0
9 *32:D *33:D 0
10 *32:D *33:CLK 0.000548221
11 *32:D *11:34 0.000146098
*RES
1 *23:Y *32:D 48.8027 
2 *23:Y *28:B 23.3933 
*END

*D_NET *2 0.000407402
*CONN
*I *31:D I *D sky130_fd_sc_hd__dfxtp_1
*I *24:X O *D sky130_fd_sc_hd__and2b_2
*CAP
1 *31:D 0.000203701
2 *24:X 0.000203701
3 *31:D *23:B_N 0
4 *31:D *31:CLK 0
*RES
1 *24:X *31:D 31.9083 
*END

*D_NET *3 0.000393186
*CONN
*I *29:D I *D sky130_fd_sc_hd__dfxtp_1
*I *25:X O *D sky130_fd_sc_hd__and2b_2
*CAP
1 *29:D 0.000196593
2 *25:X 0.000196593
3 *29:D *29:CLK 0
*RES
1 *25:X *29:D 32.0476 
*END

*D_NET *4 0.000488824
*CONN
*I *33:D I *D sky130_fd_sc_hd__dfxtp_1
*I *26:X O *D sky130_fd_sc_hd__and2b_2
*CAP
1 *33:D 0.00019409
2 *26:X 0.00019409
3 *33:D *26:B 3.03898e-05
4 *33:D *27:A 7.02539e-05
5 *33:D *6:18 0
6 *32:D *33:D 0
*RES
1 *26:X *33:D 31.3859 
*END

*D_NET *5 0.000645859
*CONN
*I *30:D I *D sky130_fd_sc_hd__dfxtp_1
*I *28:X O *D sky130_fd_sc_hd__and3_1
*CAP
1 *30:D 0.000159044
2 *28:X 0.000159044
3 *30:D *30:CLK 0.00015759
4 *30:D *6:18 0.000170181
*RES
1 *28:X *30:D 22.9411 
*END

*D_NET *6 0.00252117
*CONN
*I *28:C I *D sky130_fd_sc_hd__and3_1
*I *27:Y O *D sky130_fd_sc_hd__nor2_1
*CAP
1 *28:C 0
2 *27:Y 0.00110827
3 *6:18 0.00110827
4 *6:18 *27:A 0.000130276
5 *6:18 *7:10 0
6 *6:18 *20:19 0
7 *28:B *6:18 4.17531e-06
8 *30:D *6:18 0.000170181
9 *33:D *6:18 0
*RES
1 *27:Y *6:18 43.1429 
2 *6:18 *28:C 9.24915 
*END

*D_NET *7 0.00213092
*CONN
*P clk I
*I *52:A I *D sky130_fd_sc_hd__clkbuf_4
*CAP
1 clk 0.000985274
2 *52:A 0
3 *7:10 0.000985274
4 *7:10 *23:B_N 3.64058e-05
5 *7:10 *49:A 0.000123966
6 *7:10 *11:34 0
7 *6:18 *7:10 0
*RES
1 clk *7:10 10.5201 
2 *7:10 *52:A 13.7491 
*END

*D_NET *8 0.00140056
*CONN
*I *24:B I *D sky130_fd_sc_hd__and2b_2
*I *28:A I *D sky130_fd_sc_hd__and3_1
*I *49:X O *D sky130_fd_sc_hd__clkdlybuf4s50_1
*CAP
1 *24:B 0
2 *28:A 0.000264466
3 *49:X 0.000202007
4 *8:12 0.000466474
5 *28:A *24:A_N 3.01683e-06
6 *28:A *11:23 0.000289454
7 *28:A *11:34 4.88955e-05
8 *8:12 *31:CLK 3.72076e-05
9 *8:12 *49:A 0
10 *8:12 *11:6 1.92793e-05
11 *8:12 *11:23 2.63143e-05
12 *28:B *28:A 4.34469e-05
*RES
1 *49:X *8:12 23.023 
2 *8:12 *28:A 16.9171 
3 *8:12 *24:B 9.24915 
*END

*D_NET *9 0.000180765
*CONN
*I *51:A I *D sky130_fd_sc_hd__clkdlybuf4s50_1
*I *29:Q O *D sky130_fd_sc_hd__dfxtp_1
*CAP
1 *51:A 9.03824e-05
2 *29:Q 9.03824e-05
*RES
1 *29:Q *51:A 20.7649 
*END

*D_NET *10 0.000276826
*CONN
*I *25:B I *D sky130_fd_sc_hd__and2b_2
*I *30:Q O *D sky130_fd_sc_hd__dfxtp_1
*CAP
1 *25:B 0.000117055
2 *30:Q 0.000117055
3 *25:B *29:CLK 0
4 *25:B *20:44 4.27148e-05
*RES
1 *30:Q *25:B 30.576 
*END

*D_NET *11 0.00401738
*CONN
*I *25:A_N I *D sky130_fd_sc_hd__and2b_2
*I *26:A_N I *D sky130_fd_sc_hd__and2b_2
*I *23:A I *D sky130_fd_sc_hd__nor2b_2
*I *24:A_N I *D sky130_fd_sc_hd__and2b_2
*I *50:X O *D sky130_fd_sc_hd__clkdlybuf4s50_1
*CAP
1 *25:A_N 0.000474468
2 *26:A_N 0.000352087
3 *23:A 0
4 *24:A_N 1.93962e-05
5 *50:X 8.37853e-05
6 *11:34 0.000953926
7 *11:23 0.000366704
8 *11:6 0.000342514
9 *25:A_N *20:35 7.59319e-05
10 *25:A_N *20:44 0.000255462
11 *26:A_N *20:19 0
12 *11:23 *31:CLK 0
13 *28:A *24:A_N 3.01683e-06
14 *28:A *11:23 0.000289454
15 *28:A *11:34 4.88955e-05
16 *32:D *26:A_N 0.000560047
17 *32:D *11:34 0.000146098
18 *7:10 *11:34 0
19 *8:12 *11:6 1.92793e-05
20 *8:12 *11:23 2.63143e-05
*RES
1 *50:X *11:6 10.5271 
2 *11:6 *24:A_N 9.82786 
3 *11:6 *11:23 14.7759 
4 *11:23 *23:A 9.24915 
5 *11:23 *11:34 8.7164 
6 *11:34 *26:A_N 25.3035 
7 *11:34 *25:A_N 27.2284 
*END

*D_NET *12 0.000392242
*CONN
*I *23:B_N I *D sky130_fd_sc_hd__nor2b_2
*I *31:Q O *D sky130_fd_sc_hd__dfxtp_1
*CAP
1 *23:B_N 0.000177918
2 *31:Q 0.000177918
3 *31:D *23:B_N 0
4 *7:10 *23:B_N 3.64058e-05
*RES
1 *31:Q *23:B_N 30.6083 
*END

*D_NET *13 0.00199937
*CONN
*I *27:A I *D sky130_fd_sc_hd__nor2_1
*I *26:B I *D sky130_fd_sc_hd__and2b_2
*I *32:Q O *D sky130_fd_sc_hd__dfxtp_1
*CAP
1 *27:A 0.00051188
2 *26:B 0.000186439
3 *32:Q 0.000115126
4 *13:6 0.000813445
5 *27:A *27:B 7.22874e-05
6 *13:6 *33:CLK 6.92705e-05
7 *32:D *26:B 0
8 *33:D *26:B 3.03898e-05
9 *33:D *27:A 7.02539e-05
10 *6:18 *27:A 0.000130276
*RES
1 *32:Q *13:6 11.0817 
2 *13:6 *26:B 22.6049 
3 *13:6 *27:A 20.4377 
*END

*D_NET *14 0.000175794
*CONN
*I *27:B I *D sky130_fd_sc_hd__nor2_1
*I *33:Q O *D sky130_fd_sc_hd__dfxtp_1
*CAP
1 *27:B 5.17532e-05
2 *33:Q 5.17532e-05
3 *27:A *27:B 7.22874e-05
*RES
1 *33:Q *27:B 20.2103 
*END

*D_NET *17 0.000603613
*CONN
*P data_in I
*I *49:A I *D sky130_fd_sc_hd__clkdlybuf4s50_1
*CAP
1 data_in 0.000183817
2 *49:A 0.000183817
3 *49:A *31:CLK 0
4 *49:A *50:A 0.000112013
5 *7:10 *49:A 0.000123966
6 *8:12 *49:A 0
*RES
1 data_in *49:A 20.7725 
*END

*D_NET *18 0.000375359
*CONN
*P reset I
*I *50:A I *D sky130_fd_sc_hd__clkdlybuf4s50_1
*CAP
1 reset 0.000131673
2 *50:A 0.000131673
3 *50:A *31:CLK 0
4 *49:A *50:A 0.000112013
*RES
1 reset *50:A 18.6962 
*END

*D_NET *19 0.000699949
*CONN
*P detected O
*I *51:X O *D sky130_fd_sc_hd__clkdlybuf4s50_1
*CAP
1 detected 0.000349975
2 *51:X 0.000349975
*RES
1 *51:X detected 18.7295 
*END

*D_NET *20 0.00291777
*CONN
*I *54:A I *D sky130_fd_sc_hd__clkbuf_4
*I *53:A I *D sky130_fd_sc_hd__clkbuf_4
*I *52:X O *D sky130_fd_sc_hd__clkbuf_4
*CAP
1 *54:A 0
2 *53:A 0
3 *52:X 7.19483e-05
4 *20:44 0.000440854
5 *20:35 0.000512802
6 *20:19 0.000759028
7 *20:6 0.000759028
8 *20:19 *31:CLK 0
9 *20:44 *29:CLK 0
10 *25:A_N *20:35 7.59319e-05
11 *25:A_N *20:44 0.000255462
12 *25:B *20:44 4.27148e-05
13 *26:A_N *20:19 0
14 *6:18 *20:19 0
*RES
1 *52:X *20:6 13.7491 
2 *20:6 *20:19 13.6423 
3 *20:19 *53:A 13.7491 
4 *52:X *20:35 11.1239 
5 *20:35 *20:44 16.3021 
6 *20:44 *54:A 13.7491 
*END

*D_NET *21 0.00313689
*CONN
*I *31:CLK I *D sky130_fd_sc_hd__dfxtp_1
*I *33:CLK I *D sky130_fd_sc_hd__dfxtp_1
*I *32:CLK I *D sky130_fd_sc_hd__dfxtp_1
*I *53:X O *D sky130_fd_sc_hd__clkbuf_4
*CAP
1 *31:CLK 0.000548197
2 *33:CLK 0.000347144
3 *32:CLK 0
4 *53:X 0.000893949
5 *21:12 0.000692897
6 *31:D *31:CLK 0
7 *32:D *31:CLK 0
8 *32:D *33:CLK 0.000548221
9 *49:A *31:CLK 0
10 *50:A *31:CLK 0
11 *8:12 *31:CLK 3.72076e-05
12 *11:23 *31:CLK 0
13 *13:6 *33:CLK 6.92705e-05
14 *20:19 *31:CLK 0
*RES
1 *53:X *21:12 25.0964 
2 *21:12 *32:CLK 9.24915 
3 *21:12 *33:CLK 19.449 
4 *53:X *31:CLK 40.1268 
*END

*D_NET *22 0.00207151
*CONN
*I *55:A I *D sky130_fd_sc_hd__clkbuf_1
*I *29:CLK I *D sky130_fd_sc_hd__dfxtp_1
*I *30:CLK I *D sky130_fd_sc_hd__dfxtp_1
*I *54:X O *D sky130_fd_sc_hd__clkbuf_4
*CAP
1 *55:A 0.000155191
2 *29:CLK 0.000313893
3 *30:CLK 0.000187774
4 *54:X 0.000148802
5 *22:12 0.000652968
6 *22:10 0.000455294
7 *25:B *29:CLK 0
8 *29:D *29:CLK 0
9 *30:D *30:CLK 0.00015759
10 *20:44 *29:CLK 0
*RES
1 *54:X *22:10 12.9385 
2 *22:10 *22:12 3.49641 
3 *22:12 *30:CLK 14.4094 
4 *22:12 *29:CLK 25.3723 
5 *22:10 *55:A 22.1574 
*END
