*SPEF "ieee 1481-1999"
*DESIGN "exp_fixed_point"
*DATE "20:48:27 Friday April 24, 2026"
*VENDOR "The OpenROAD Project"
*PROGRAM "OpenROAD"
*VERSION "26Q2-339-g0504146ce6"
*DESIGN_FLOW "NAME_SCOPE LOCAL" "PIN_CAP NONE"
*DIVIDER /
*DELIMITER :
*BUS_DELIMITER []
*T_UNIT 1 NS
*C_UNIT 1 PF
*R_UNIT 1 OHM
*L_UNIT 1 HENRY

*NAME_MAP
*1 _000_
*2 _001_
*3 _002_
*4 _003_
*5 _004_
*6 _005_
*7 _006_
*8 _007_
*9 _008_
*10 _009_
*11 _010_
*12 _011_
*13 _012_
*14 _013_
*15 _014_
*16 _015_
*17 _016_
*18 _017_
*19 _018_
*20 clknet_1_0__leaf_clk
*21 _020_
*22 _021_
*23 _022_
*24 _023_
*25 _024_
*26 _025_
*27 clknet_0_clk
*28 net39
*29 _028_
*30 net36
*31 _030_
*32 net43
*33 _032_
*34 _033_
*35 _034_
*36 _035_
*37 net42
*38 net41
*39 _038_
*40 net40
*41 _040_
*42 _041_
*43 _042_
*44 net38
*45 _044_
*46 _045_
*47 _046_
*48 _047_
*49 _048_
*50 _049_
*51 _050_
*52 _051_
*53 _052_
*54 _053_
*55 _054_
*56 net37
*57 net35
*58 _057_
*59 net34
*60 _059_
*61 _060_
*62 _061_
*63 exp_out[9]
*64 _063_
*65 _064_
*66 _065_
*67 exp_out[8]
*68 _067_
*69 _068_
*70 _069_
*71 _070_
*72 _071_
*73 _072_
*74 _073_
*75 _074_
*76 exp_out[7]
*77 _076_
*78 _077_
*79 _078_
*80 _079_
*81 _080_
*82 exp_out[6]
*83 _082_
*84 _083_
*85 _084_
*86 _085_
*87 _086_
*88 _087_
*89 _088_
*90 exp_out[5]
*91 _090_
*92 _091_
*93 _092_
*94 _093_
*95 _094_
*96 exp_out[4]
*97 _096_
*98 _097_
*99 _098_
*100 _099_
*101 _100_
*102 _101_
*103 _102_
*104 _103_
*105 _104_
*106 _105_
*107 _106_
*108 _107_
*109 _108_
*110 _109_
*111 _110_
*112 _111_
*113 _112_
*114 _113_
*115 _114_
*116 _115_
*117 exp_out[3]
*118 exp_out[2]
*119 exp_out[1]
*120 _119_
*121 _120_
*122 _121_
*123 _122_
*124 _123_
*125 _124_
*126 _125_
*127 exp_out[0]
*128 _127_
*129 _128_
*130 _129_
*131 _130_
*132 _131_
*133 _132_
*134 _133_
*135 _134_
*136 _135_
*137 _136_
*138 _137_
*139 _138_
*140 _139_
*141 _140_
*142 _141_
*143 _142_
*144 _143_
*145 _144_
*146 _145_
*147 _146_
*148 _147_
*149 _148_
*150 _149_
*151 _150_
*152 x_in[7]
*153 _152_
*154 _153_
*155 _154_
*156 _155_
*157 _156_
*158 _157_
*159 _158_
*160 _159_
*161 _160_
*162 _161_
*163 _162_
*164 _163_
*165 _164_
*166 _165_
*167 _166_
*168 _167_
*169 _168_
*170 _169_
*171 _170_
*172 _171_
*173 _172_
*174 _173_
*175 _174_
*176 _175_
*177 _176_
*178 _177_
*179 _178_
*180 _179_
*181 _180_
*182 _181_
*183 _182_
*184 _183_
*185 _184_
*186 _185_
*187 _186_
*188 _187_
*189 _188_
*190 _189_
*191 _190_
*192 _191_
*193 _192_
*194 _193_
*195 _194_
*196 _195_
*197 _196_
*198 _197_
*199 _198_
*200 _199_
*201 _200_
*202 _201_
*203 _202_
*204 _203_
*205 x_in[6]
*206 _205_
*207 _206_
*208 _207_
*209 _208_
*210 _209_
*211 _210_
*212 _211_
*213 _212_
*214 _213_
*215 _214_
*216 x_in[5]
*217 _216_
*218 _217_
*219 _218_
*220 _219_
*221 _220_
*222 _221_
*223 _222_
*224 _223_
*225 _224_
*226 _225_
*227 _226_
*228 _227_
*229 _228_
*230 _229_
*231 _230_
*232 _231_
*233 _232_
*234 _233_
*235 _234_
*236 _235_
*237 _236_
*238 _237_
*239 _238_
*240 _239_
*241 _240_
*242 _241_
*243 _242_
*244 _243_
*245 _244_
*246 _245_
*247 _246_
*248 _247_
*249 _248_
*250 _249_
*251 _250_
*252 _251_
*253 _252_
*254 _253_
*255 _254_
*256 _255_
*257 _256_
*258 _257_
*259 _258_
*260 _259_
*261 _260_
*262 _261_
*263 _262_
*264 _263_
*265 _264_
*266 _265_
*267 _266_
*268 _267_
*269 _268_
*270 _269_
*271 _270_
*272 _271_
*273 _272_
*274 _273_
*275 _274_
*276 _275_
*277 _276_
*278 _277_
*279 _278_
*280 _279_
*281 _280_
*282 _281_
*283 _282_
*284 _283_
*285 _284_
*286 _285_
*287 _286_
*288 _287_
*289 _288_
*290 _289_
*291 _290_
*292 _291_
*293 _292_
*294 _293_
*295 _294_
*296 _295_
*297 _296_
*298 _297_
*299 _298_
*300 _299_
*301 _300_
*302 _301_
*303 _302_
*304 _303_
*305 _304_
*306 _305_
*307 _306_
*308 _307_
*309 _308_
*310 _309_
*311 _310_
*312 _311_
*313 _312_
*314 _313_
*315 _314_
*316 _315_
*317 _316_
*318 _317_
*319 _318_
*320 _319_
*321 _320_
*322 _321_
*323 _322_
*324 _323_
*325 _324_
*326 _325_
*327 _326_
*328 _327_
*329 _328_
*330 _329_
*331 _330_
*332 _331_
*333 _332_
*334 _333_
*335 _334_
*336 _335_
*337 _336_
*338 _337_
*339 _338_
*340 _339_
*341 _340_
*342 _341_
*343 _342_
*344 _343_
*345 _344_
*346 _345_
*347 _346_
*348 _347_
*349 _348_
*350 _349_
*351 _350_
*352 _351_
*353 _352_
*354 _353_
*355 _354_
*356 _355_
*357 _356_
*358 _357_
*359 _358_
*360 _359_
*361 _360_
*362 _361_
*363 _362_
*364 _363_
*365 _364_
*366 _365_
*367 _366_
*368 _367_
*369 _368_
*370 _369_
*371 _370_
*372 x_in[4]
*373 _372_
*374 _373_
*375 _374_
*376 _375_
*377 _376_
*378 _377_
*379 _378_
*380 _379_
*381 _380_
*382 _381_
*385 _384_
*393 _392_
*397 _396_
*398 _397_
*400 _399_
*401 _400_
*405 _404_
*406 _405_
*407 _406_
*408 _407_
*409 _408_
*410 _409_
*417 _416_
*419 _418_
*422 _421_
*424 _423_
*425 _424_
*426 _425_
*427 _426_
*429 clknet_1_1__leaf_clk
*430 _429_
*431 _430_
*432 _431_
*434 clk
*435 net6
*436 net16
*437 exp_out[10]
*438 exp_out[11]
*439 exp_out[12]
*440 exp_out[13]
*441 exp_out[14]
*442 exp_out[15]
*443 net17
*444 net18
*445 net19
*446 net20
*447 net21
*448 net22
*449 net23
*450 net24
*451 net25
*452 net7
*453 stage1_valid
*454 stage1_x\[0\]
*455 stage1_x\[1\]
*456 stage1_x\[2\]
*457 stage1_x\[3\]
*458 stage1_x\[4\]
*459 stage1_x\[5\]
*460 stage1_x\[6\]
*461 stage1_x\[7\]
*462 net8
*463 net9
*464 net10
*465 net11
*466 net12
*467 net13
*468 net14
*469 net15
*470 x_in[3]
*471 x_in[2]
*472 x_in[1]
*473 x_in[0]
*474 rst
*475 enable
*476 FILLER_0_151
*477 FILLER_0_149
*478 _435_
*479 FILLER_0_145
*480 FILLER_0_137
*481 FILLER_0_129
*482 FILLER_0_121
*483 FILLER_0_119
*484 FILLER_0_115
*485 FILLER_0_107
*486 _443_
*487 FILLER_0_99
*488 FILLER_0_91
*489 FILLER_0_89
*490 _447_
*491 _448_
*492 FILLER_0_85
*493 _450_
*494 _451_
*495 FILLER_0_77
*496 FILLER_0_69
*497 FILLER_0_61
*498 _455_
*499 _456_
*500 _457_
*501 _458_
*502 _459_
*503 _460_
*504 FILLER_0_56
*505 FILLER_0_48
*506 _463_
*507 FILLER_0_40
*508 FILLER_0_35
*509 FILLER_0_31
*510 FILLER_0_28
*511 _468_
*512 FILLER_0_24
*513 _470_
*514 FILLER_0_16
*515 FILLER_0_8
*516 _473_
*517 FILLER_0_0
*518 _475_
*519 _476_
*520 _477_
*521 _478_
*522 clkload0
*523 clkbuf_1_1__f_clk
*524 _481_
*525 _482_
*526 _483_
*527 clkbuf_1_0__f_clk
*528 _485_
*529 _486_
*530 _487_
*531 _488_
*532 _489_
*533 _490_
*534 _491_
*535 clkbuf_0_clk
*536 place40
*537 _494_
*538 place37
*539 _496_
*540 place44
*541 _498_
*542 _499_
*543 _500_
*544 _501_
*545 place43
*546 place42
*547 _504_
*548 place41
*549 _506_
*550 _507_
*551 _508_
*552 place39
*553 _510_
*554 _511_
*555 _512_
*556 _513_
*557 _514_
*558 _515_
*559 _516_
*560 _517_
*561 _518_
*562 _519_
*563 _520_
*564 _521_
*565 place38
*566 place36
*567 _524_
*568 place35
*569 _526_
*570 _527_
*571 _528_
*572 output26
*573 _530_
*574 _531_
*575 _532_
*576 output25
*577 _534_
*578 _535_
*579 _536_
*580 _537_
*581 _538_
*582 _539_
*583 _540_
*584 _541_
*585 output24
*586 _543_
*587 _544_
*588 _545_
*589 _546_
*590 _547_
*591 output23
*592 _549_
*593 _550_
*594 _551_
*595 _552_
*596 _553_
*597 _554_
*598 _555_
*599 output22
*600 _557_
*601 _558_
*602 _559_
*603 _560_
*604 _561_
*605 output21
*606 _563_
*607 _564_
*608 _565_
*609 _566_
*610 _567_
*611 _568_
*612 _569_
*613 _570_
*614 _571_
*615 _572_
*616 _573_
*617 _574_
*618 _575_
*619 _576_
*620 _577_
*621 _578_
*622 _579_
*623 _580_
*624 _581_
*625 _582_
*626 _583_
*627 output20
*628 output19
*629 output18
*630 _587_
*631 _588_
*632 _589_
*633 _590_
*634 _591_
*635 _592_
*636 _593_
*637 output17
*638 _595_
*639 _596_
*640 _597_
*641 _598_
*642 _599_
*643 _600_
*644 _601_
*645 _602_
*646 _603_
*647 _604_
*648 _605_
*649 _606_
*650 _607_
*651 _608_
*652 _609_
*653 _610_
*654 _611_
*655 _612_
*656 _613_
*657 _614_
*658 _615_
*659 _616_
*660 _617_
*661 _618_
*662 _619_
*663 input16
*664 _621_
*665 _622_
*666 _623_
*667 _624_
*668 _625_
*669 _626_
*670 _627_
*671 _628_
*672 _629_
*673 _630_
*674 _631_
*675 _632_
*676 _633_
*677 _634_
*678 _635_
*679 _636_
*680 _637_
*681 _638_
*682 _639_
*683 _640_
*684 _641_
*685 _642_
*686 _643_
*687 _644_
*688 _645_
*689 _646_
*690 _647_
*691 _648_
*692 _649_
*693 _650_
*694 _651_
*695 _652_
*696 _653_
*697 _654_
*698 _655_
*699 _656_
*700 _657_
*701 _658_
*702 _659_
*703 _660_
*704 _661_
*705 _662_
*706 _663_
*707 _664_
*708 _665_
*709 _666_
*710 _667_
*711 _668_
*712 _669_
*713 _670_
*714 _671_
*715 _672_
*716 input15
*717 _674_
*718 _675_
*719 _676_
*720 _677_
*721 _678_
*722 _679_
*723 _680_
*724 _681_
*725 _682_
*726 _683_
*727 _684_
*728 input14
*729 _686_
*730 _687_
*731 _688_
*732 _689_
*733 _690_
*734 _691_
*735 _692_
*736 _693_
*737 _694_
*738 _695_
*739 _696_
*740 _697_
*741 _698_
*742 _699_
*743 _700_
*744 _701_
*745 _702_
*746 _703_
*747 _704_
*748 _705_
*749 _706_
*750 _707_
*751 _708_
*752 _709_
*753 _710_
*754 _711_
*755 _712_
*756 _713_
*757 _714_
*758 _715_
*759 _716_
*760 _717_
*761 _718_
*762 _719_
*763 _720_
*764 _721_
*765 _722_
*766 _723_
*767 _724_
*768 _725_
*769 _726_
*770 _727_
*771 _728_
*772 _729_
*773 _730_
*774 _731_
*775 _732_
*776 _733_
*777 _734_
*778 _735_
*779 _736_
*780 _737_
*781 _738_
*782 _739_
*783 _740_
*784 _741_
*785 _742_
*786 _743_
*787 _744_
*788 _745_
*789 _746_
*790 _747_
*791 _748_
*792 _749_
*793 _750_
*794 _751_
*795 _752_
*796 _753_
*797 _754_
*798 _755_
*799 _756_
*800 _757_
*801 _758_
*802 _759_
*803 _760_
*804 _761_
*805 _762_
*806 _763_
*807 _764_
*808 _765_
*809 _766_
*810 _767_
*811 _768_
*812 _769_
*813 _770_
*814 _771_
*815 _772_
*816 _773_
*817 _774_
*818 _775_
*819 _776_
*820 _777_
*821 _778_
*822 _779_
*823 _780_
*824 _781_
*825 _782_
*826 _783_
*827 _784_
*828 _785_
*829 _786_
*830 _787_
*831 _788_
*832 _789_
*833 _790_
*834 _791_
*835 _792_
*836 _793_
*837 _794_
*838 _795_
*839 _796_
*840 _797_
*841 _798_
*842 _799_
*843 _800_
*844 _801_
*845 _802_
*846 _803_
*847 _804_
*848 _805_
*849 _806_
*850 _807_
*851 _808_
*852 _809_
*853 _810_
*854 _811_
*855 _812_
*856 _813_
*857 _814_
*858 _815_
*859 _816_
*860 _817_
*861 _818_
*862 _819_
*863 _820_
*864 _821_
*865 _822_
*866 _823_
*867 _824_
*868 _825_
*869 _826_
*870 _827_
*871 _828_
*872 _829_
*873 _830_
*874 _831_
*875 _832_
*876 _833_
*877 _834_
*878 _835_
*879 _836_
*880 _837_
*881 _838_
*882 _839_
*883 _840_
*884 _841_
*885 _842_
*886 _843_
*887 input13
*888 _845_
*889 _846_
*890 _847_
*891 _848_
*892 _849_
*893 _850_
*894 _851_
*895 _852_
*896 _853_
*897 _854_
*898 _855_
*899 _856_
*900 _857_
*901 _858_
*902 _859_
*903 _860_
*904 _861_
*905 _862_
*906 _863_
*907 _864_
*908 TAP_TAPCELL_ROW_0_0
*909 input12
*910 input11
*911 input10
*912 input9
*913 input8
*914 input7
*915 exp_out\[0\]\$_SDFFE_PP0P_
*916 exp_out\[1\]\$_SDFFE_PP0P_
*917 exp_out\[2\]\$_SDFFE_PP0P_
*918 exp_out\[3\]\$_SDFFE_PP0P_
*919 exp_out\[4\]\$_SDFFE_PP0P_
*920 exp_out\[5\]\$_SDFFE_PP0P_
*921 exp_out\[6\]\$_SDFFE_PP0P_
*922 exp_out\[7\]\$_SDFFE_PP0P_
*923 exp_out\[8\]\$_SDFFE_PP0P_
*924 exp_out\[9\]\$_SDFFE_PP0P_
*925 stage1_valid\$_SDFF_PP0_
*926 stage1_x\[0\]\$_SDFFE_PP0P_
*927 stage1_x\[1\]\$_SDFFE_PP0P_
*928 stage1_x\[2\]\$_SDFFE_PP0P_
*929 stage1_x\[3\]\$_SDFFE_PP0P_
*930 stage1_x\[4\]\$_SDFFE_PP0P_
*931 stage1_x\[5\]\$_SDFFE_PP0P_
*932 stage1_x\[6\]\$_SDFFE_PP0P_
*933 stage1_x\[7\]\$_SDFFE_PP0P_
*934 _866__1
*935 _867__2
*936 _868__3
*937 _869__4
*938 _870__5
*939 _871__6
*940 TAP_TAPCELL_ROW_0_1
*941 TAP_TAPCELL_ROW_0_2
*942 TAP_TAPCELL_ROW_0_3
*943 TAP_TAPCELL_ROW_0_4
*944 TAP_TAPCELL_ROW_1_5
*945 TAP_TAPCELL_ROW_1_6
*946 TAP_TAPCELL_ROW_2_7
*947 TAP_TAPCELL_ROW_2_8
*948 TAP_TAPCELL_ROW_2_9
*949 TAP_TAPCELL_ROW_3_10
*950 TAP_TAPCELL_ROW_3_11
*951 TAP_TAPCELL_ROW_4_12
*952 TAP_TAPCELL_ROW_4_13
*953 TAP_TAPCELL_ROW_4_14
*954 TAP_TAPCELL_ROW_5_15
*955 TAP_TAPCELL_ROW_5_16
*956 TAP_TAPCELL_ROW_6_17
*957 TAP_TAPCELL_ROW_6_18
*958 TAP_TAPCELL_ROW_6_19
*959 TAP_TAPCELL_ROW_7_20
*960 TAP_TAPCELL_ROW_7_21
*961 TAP_TAPCELL_ROW_8_22
*962 TAP_TAPCELL_ROW_8_23
*963 TAP_TAPCELL_ROW_8_24
*964 TAP_TAPCELL_ROW_9_25
*965 TAP_TAPCELL_ROW_9_26
*966 TAP_TAPCELL_ROW_10_27
*967 TAP_TAPCELL_ROW_10_28
*968 TAP_TAPCELL_ROW_10_29
*969 TAP_TAPCELL_ROW_11_30
*970 TAP_TAPCELL_ROW_11_31
*971 TAP_TAPCELL_ROW_12_32
*972 TAP_TAPCELL_ROW_12_33
*973 TAP_TAPCELL_ROW_12_34
*974 TAP_TAPCELL_ROW_13_35
*975 TAP_TAPCELL_ROW_13_36
*976 TAP_TAPCELL_ROW_14_37
*977 TAP_TAPCELL_ROW_14_38
*978 TAP_TAPCELL_ROW_14_39
*979 TAP_TAPCELL_ROW_15_40
*980 TAP_TAPCELL_ROW_15_41
*981 TAP_TAPCELL_ROW_16_42
*982 TAP_TAPCELL_ROW_16_43
*983 TAP_TAPCELL_ROW_16_44
*984 TAP_TAPCELL_ROW_17_45
*985 TAP_TAPCELL_ROW_17_46
*986 TAP_TAPCELL_ROW_18_47
*987 TAP_TAPCELL_ROW_18_48
*988 TAP_TAPCELL_ROW_18_49
*989 TAP_TAPCELL_ROW_19_50
*990 TAP_TAPCELL_ROW_19_51
*991 TAP_TAPCELL_ROW_20_52
*992 TAP_TAPCELL_ROW_20_53
*993 TAP_TAPCELL_ROW_20_54
*994 TAP_TAPCELL_ROW_21_55
*995 TAP_TAPCELL_ROW_21_56
*996 TAP_TAPCELL_ROW_22_57
*997 TAP_TAPCELL_ROW_22_58
*998 TAP_TAPCELL_ROW_22_59
*999 TAP_TAPCELL_ROW_23_60
*1000 TAP_TAPCELL_ROW_23_61
*1001 TAP_TAPCELL_ROW_24_62
*1002 TAP_TAPCELL_ROW_24_63
*1003 TAP_TAPCELL_ROW_24_64
*1004 TAP_TAPCELL_ROW_25_65
*1005 TAP_TAPCELL_ROW_25_66
*1006 TAP_TAPCELL_ROW_26_67
*1007 TAP_TAPCELL_ROW_26_68
*1008 TAP_TAPCELL_ROW_26_69
*1009 TAP_TAPCELL_ROW_27_70
*1010 TAP_TAPCELL_ROW_27_71
*1011 TAP_TAPCELL_ROW_27_72
*1012 TAP_TAPCELL_ROW_27_73
*1013 TAP_TAPCELL_ROW_27_74
*1014 FILLER_0_159
*1015 FILLER_0_167
*1016 FILLER_1_3
*1017 FILLER_1_11
*1018 FILLER_1_19
*1019 FILLER_1_27
*1020 FILLER_1_31
*1021 FILLER_1_36
*1022 FILLER_1_41
*1023 FILLER_1_49
*1024 FILLER_1_59
*1025 FILLER_1_61
*1026 FILLER_1_69
*1027 FILLER_1_75
*1028 FILLER_1_79
*1029 FILLER_1_84
*1030 FILLER_1_88
*1031 FILLER_1_94
*1032 FILLER_1_102
*1033 FILLER_1_118
*1034 FILLER_1_129
*1035 FILLER_1_143
*1036 FILLER_1_151
*1037 FILLER_1_159
*1038 FILLER_1_167
*1039 FILLER_2_0
*1040 FILLER_2_8
*1041 FILLER_2_16
*1042 FILLER_2_24
*1043 FILLER_2_36
*1044 FILLER_2_61
*1045 FILLER_2_65
*1046 FILLER_2_82
*1047 FILLER_2_98
*1048 FILLER_2_109
*1049 FILLER_2_118
*1050 FILLER_2_124
*1051 FILLER_2_126
*1052 FILLER_2_135
*1053 FILLER_2_146
*1054 FILLER_2_151
*1055 FILLER_2_159
*1056 FILLER_2_167
*1057 FILLER_3_0
*1058 FILLER_3_5
*1059 FILLER_3_13
*1060 FILLER_3_21
*1061 FILLER_3_29
*1062 FILLER_3_66
*1063 FILLER_3_70
*1064 FILLER_3_93
*1065 FILLER_3_97
*1066 FILLER_3_99
*1067 FILLER_3_109
*1068 FILLER_3_121
*1069 FILLER_3_132
*1070 FILLER_3_144
*1071 FILLER_3_152
*1072 FILLER_3_160
*1073 FILLER_4_3
*1074 FILLER_4_11
*1075 FILLER_4_19
*1076 FILLER_4_27
*1077 FILLER_4_29
*1078 FILLER_4_46
*1079 FILLER_4_50
*1080 FILLER_4_52
*1081 FILLER_4_57
*1082 FILLER_4_77
*1083 FILLER_4_83
*1084 FILLER_4_85
*1085 FILLER_4_101
*1086 FILLER_4_105
*1087 FILLER_4_118
*1088 FILLER_4_125
*1089 FILLER_4_144
*1090 FILLER_4_148
*1091 FILLER_4_151
*1092 FILLER_4_159
*1093 FILLER_4_167
*1094 FILLER_5_3
*1095 FILLER_5_11
*1096 FILLER_5_19
*1097 FILLER_5_27
*1098 FILLER_5_38
*1099 FILLER_5_55
*1100 FILLER_5_59
*1101 FILLER_5_61
*1102 FILLER_5_67
*1103 FILLER_5_69
*1104 FILLER_5_82
*1105 FILLER_5_88
*1106 FILLER_5_95
*1107 FILLER_5_101
*1108 FILLER_5_105
*1109 FILLER_5_110
*1110 FILLER_5_118
*1111 FILLER_5_121
*1112 FILLER_5_139
*1113 FILLER_5_145
*1114 FILLER_5_153
*1115 FILLER_5_161
*1116 FILLER_5_165
*1117 FILLER_5_167
*1118 FILLER_6_3
*1119 FILLER_6_11
*1120 FILLER_6_15
*1121 FILLER_6_17
*1122 FILLER_6_50
*1123 FILLER_6_54
*1124 FILLER_6_56
*1125 FILLER_6_60
*1126 FILLER_6_71
*1127 FILLER_6_84
*1128 FILLER_6_88
*1129 FILLER_6_91
*1130 FILLER_6_105
*1131 FILLER_6_124
*1132 FILLER_6_137
*1133 FILLER_6_143
*1134 FILLER_6_147
*1135 FILLER_6_149
*1136 FILLER_6_151
*1137 FILLER_6_159
*1138 FILLER_6_167
*1139 FILLER_7_3
*1140 FILLER_7_11
*1141 FILLER_7_19
*1142 FILLER_7_21
*1143 FILLER_7_33
*1144 FILLER_7_43
*1145 FILLER_7_47
*1146 FILLER_7_52
*1147 FILLER_7_61
*1148 FILLER_7_65
*1149 FILLER_7_70
*1150 FILLER_7_78
*1151 FILLER_7_82
*1152 FILLER_7_86
*1153 FILLER_7_94
*1154 FILLER_7_102
*1155 FILLER_7_104
*1156 FILLER_7_110
*1157 FILLER_7_112
*1158 FILLER_7_119
*1159 FILLER_7_121
*1160 FILLER_7_123
*1161 FILLER_7_133
*1162 FILLER_7_138
*1163 FILLER_7_146
*1164 FILLER_7_154
*1165 FILLER_7_162
*1166 FILLER_7_166
*1167 FILLER_8_28
*1168 FILLER_8_31
*1169 FILLER_8_33
*1170 FILLER_8_39
*1171 FILLER_8_63
*1172 FILLER_8_67
*1173 FILLER_8_74
*1174 FILLER_8_82
*1175 FILLER_8_95
*1176 FILLER_8_103
*1177 FILLER_8_107
*1178 FILLER_8_127
*1179 FILLER_8_141
*1180 FILLER_8_143
*1181 FILLER_8_149
*1182 FILLER_8_151
*1183 FILLER_8_159
*1184 FILLER_8_167
*1185 FILLER_9_0
*1186 FILLER_9_8
*1187 FILLER_9_12
*1188 FILLER_9_20
*1189 FILLER_9_24
*1190 FILLER_9_26
*1191 FILLER_9_36
*1192 FILLER_9_38
*1193 FILLER_9_61
*1194 FILLER_9_63
*1195 FILLER_9_73
*1196 FILLER_9_85
*1197 FILLER_9_89
*1198 FILLER_9_93
*1199 FILLER_9_99
*1200 FILLER_9_103
*1201 FILLER_9_105
*1202 FILLER_9_113
*1203 FILLER_9_117
*1204 FILLER_9_119
*1205 FILLER_9_121
*1206 FILLER_9_129
*1207 FILLER_9_131
*1208 FILLER_9_143
*1209 FILLER_9_150
*1210 FILLER_9_158
*1211 FILLER_9_166
*1212 FILLER_10_0
*1213 FILLER_10_4
*1214 FILLER_10_23
*1215 FILLER_10_25
*1216 FILLER_10_29
*1217 FILLER_10_39
*1218 FILLER_10_43
*1219 FILLER_10_45
*1220 FILLER_10_58
*1221 FILLER_10_86
*1222 FILLER_10_102
*1223 FILLER_10_111
*1224 FILLER_10_113
*1225 FILLER_10_124
*1226 FILLER_10_132
*1227 FILLER_10_143
*1228 FILLER_10_151
*1229 FILLER_10_159
*1230 FILLER_10_167
*1231 FILLER_11_0
*1232 FILLER_11_11
*1233 FILLER_11_16
*1234 FILLER_11_24
*1235 FILLER_11_36
*1236 FILLER_11_38
*1237 FILLER_11_43
*1238 FILLER_11_45
*1239 FILLER_11_49
*1240 FILLER_11_53
*1241 FILLER_11_57
*1242 FILLER_11_59
*1243 FILLER_11_61
*1244 FILLER_11_69
*1245 FILLER_11_75
*1246 FILLER_11_77
*1247 FILLER_11_85
*1248 FILLER_11_102
*1249 FILLER_11_110
*1250 FILLER_11_121
*1251 FILLER_11_152
*1252 FILLER_11_160
*1253 FILLER_12_0
*1254 FILLER_12_2
*1255 FILLER_12_20
*1256 FILLER_12_28
*1257 FILLER_12_31
*1258 FILLER_12_39
*1259 FILLER_12_43
*1260 FILLER_12_49
*1261 FILLER_12_57
*1262 FILLER_12_61
*1263 FILLER_12_63
*1264 FILLER_12_73
*1265 FILLER_12_77
*1266 FILLER_12_88
*1267 FILLER_12_91
*1268 FILLER_12_99
*1269 FILLER_12_104
*1270 FILLER_12_112
*1271 FILLER_12_123
*1272 FILLER_12_125
*1273 FILLER_12_129
*1274 FILLER_12_137
*1275 FILLER_12_139
*1276 FILLER_12_151
*1277 FILLER_12_159
*1278 FILLER_12_167
*1279 FILLER_13_8
*1280 FILLER_13_12
*1281 FILLER_13_21
*1282 FILLER_13_38
*1283 FILLER_13_40
*1284 FILLER_13_52
*1285 FILLER_13_61
*1286 FILLER_13_78
*1287 FILLER_13_80
*1288 FILLER_13_85
*1289 FILLER_13_93
*1290 FILLER_13_95
*1291 FILLER_13_103
*1292 FILLER_13_107
*1293 FILLER_13_109
*1294 FILLER_13_121
*1295 FILLER_13_137
*1296 FILLER_13_145
*1297 FILLER_13_153
*1298 FILLER_13_161
*1299 FILLER_13_165
*1300 FILLER_13_167
*1301 FILLER_14_0
*1302 FILLER_14_18
*1303 FILLER_14_26
*1304 FILLER_14_31
*1305 FILLER_14_37
*1306 FILLER_14_45
*1307 FILLER_14_53
*1308 FILLER_14_61
*1309 FILLER_14_69
*1310 FILLER_14_75
*1311 FILLER_14_83
*1312 FILLER_14_87
*1313 FILLER_14_89
*1314 FILLER_14_91
*1315 FILLER_14_99
*1316 FILLER_14_106
*1317 FILLER_14_108
*1318 FILLER_14_119
*1319 FILLER_14_127
*1320 FILLER_14_135
*1321 FILLER_14_143
*1322 FILLER_14_147
*1323 FILLER_14_149
*1324 FILLER_14_151
*1325 FILLER_14_159
*1326 FILLER_14_167
*1327 FILLER_15_0
*1328 FILLER_15_8
*1329 FILLER_15_16
*1330 FILLER_15_18
*1331 FILLER_15_54
*1332 FILLER_15_58
*1333 FILLER_15_61
*1334 FILLER_15_65
*1335 FILLER_15_75
*1336 FILLER_15_81
*1337 FILLER_15_85
*1338 FILLER_15_105
*1339 FILLER_15_113
*1340 FILLER_15_117
*1341 FILLER_15_119
*1342 FILLER_15_121
*1343 FILLER_15_125
*1344 FILLER_15_130
*1345 FILLER_15_139
*1346 FILLER_15_141
*1347 FILLER_15_149
*1348 FILLER_15_157
*1349 FILLER_15_165
*1350 FILLER_15_167
*1351 FILLER_16_0
*1352 FILLER_16_8
*1353 FILLER_16_16
*1354 FILLER_16_24
*1355 FILLER_16_31
*1356 FILLER_16_44
*1357 FILLER_16_51
*1358 FILLER_16_76
*1359 FILLER_16_80
*1360 FILLER_16_88
*1361 FILLER_16_91
*1362 FILLER_16_95
*1363 FILLER_16_113
*1364 FILLER_16_115
*1365 FILLER_16_120
*1366 FILLER_16_124
*1367 FILLER_16_135
*1368 FILLER_16_137
*1369 FILLER_16_151
*1370 FILLER_16_159
*1371 FILLER_16_167
*1372 FILLER_17_0
*1373 FILLER_17_2
*1374 FILLER_17_14
*1375 FILLER_17_24
*1376 FILLER_17_30
*1377 FILLER_17_35
*1378 FILLER_17_37
*1379 FILLER_17_42
*1380 FILLER_17_50
*1381 FILLER_17_54
*1382 FILLER_17_61
*1383 FILLER_17_63
*1384 FILLER_17_70
*1385 FILLER_17_78
*1386 FILLER_17_86
*1387 FILLER_17_101
*1388 FILLER_17_103
*1389 FILLER_17_118
*1390 FILLER_17_121
*1391 FILLER_17_125
*1392 FILLER_17_127
*1393 FILLER_17_135
*1394 FILLER_17_140
*1395 FILLER_17_142
*1396 FILLER_17_146
*1397 FILLER_17_153
*1398 FILLER_17_161
*1399 FILLER_17_165
*1400 FILLER_17_167
*1401 FILLER_18_24
*1402 FILLER_18_26
*1403 FILLER_18_31
*1404 FILLER_18_63
*1405 FILLER_18_78
*1406 FILLER_18_82
*1407 FILLER_18_84
*1408 FILLER_18_89
*1409 FILLER_18_91
*1410 FILLER_18_95
*1411 FILLER_18_100
*1412 FILLER_18_104
*1413 FILLER_18_111
*1414 FILLER_18_115
*1415 FILLER_18_128
*1416 FILLER_18_151
*1417 FILLER_18_159
*1418 FILLER_18_167
*1419 FILLER_19_0
*1420 FILLER_19_8
*1421 FILLER_19_10
*1422 FILLER_19_19
*1423 FILLER_19_27
*1424 FILLER_19_42
*1425 FILLER_19_50
*1426 FILLER_19_58
*1427 FILLER_19_69
*1428 FILLER_19_82
*1429 FILLER_19_90
*1430 FILLER_19_94
*1431 FILLER_19_103
*1432 FILLER_19_111
*1433 FILLER_19_115
*1434 FILLER_19_121
*1435 FILLER_19_125
*1436 FILLER_19_127
*1437 FILLER_19_132
*1438 FILLER_19_138
*1439 FILLER_19_142
*1440 FILLER_19_148
*1441 FILLER_19_156
*1442 FILLER_19_164
*1443 FILLER_20_0
*1444 FILLER_20_8
*1445 FILLER_20_26
*1446 FILLER_20_31
*1447 FILLER_20_33
*1448 FILLER_20_39
*1449 FILLER_20_47
*1450 FILLER_20_49
*1451 FILLER_20_61
*1452 FILLER_20_91
*1453 FILLER_20_105
*1454 FILLER_20_109
*1455 FILLER_20_114
*1456 FILLER_20_118
*1457 FILLER_20_122
*1458 FILLER_20_126
*1459 FILLER_20_133
*1460 FILLER_20_137
*1461 FILLER_20_139
*1462 FILLER_20_143
*1463 FILLER_20_155
*1464 FILLER_20_163
*1465 FILLER_20_167
*1466 FILLER_21_0
*1467 FILLER_21_20
*1468 FILLER_21_28
*1469 FILLER_21_36
*1470 FILLER_21_44
*1471 FILLER_21_55
*1472 FILLER_21_67
*1473 FILLER_21_78
*1474 FILLER_21_88
*1475 FILLER_21_90
*1476 FILLER_21_96
*1477 FILLER_21_104
*1478 FILLER_21_118
*1479 FILLER_21_121
*1480 FILLER_21_125
*1481 FILLER_21_127
*1482 FILLER_21_135
*1483 FILLER_21_149
*1484 FILLER_21_157
*1485 FILLER_21_165
*1486 FILLER_21_167
*1487 FILLER_22_0
*1488 FILLER_22_17
*1489 FILLER_22_25
*1490 FILLER_22_29
*1491 FILLER_22_31
*1492 FILLER_22_39
*1493 FILLER_22_41
*1494 FILLER_22_47
*1495 FILLER_22_55
*1496 FILLER_22_57
*1497 FILLER_22_66
*1498 FILLER_22_70
*1499 FILLER_22_85
*1500 FILLER_22_94
*1501 FILLER_22_102
*1502 FILLER_22_110
*1503 FILLER_22_117
*1504 FILLER_22_125
*1505 FILLER_22_129
*1506 FILLER_22_137
*1507 FILLER_22_141
*1508 FILLER_22_151
*1509 FILLER_22_160
*1510 FILLER_23_0
*1511 FILLER_23_10
*1512 FILLER_23_39
*1513 FILLER_23_43
*1514 FILLER_23_49
*1515 FILLER_23_51
*1516 FILLER_23_55
*1517 FILLER_23_59
*1518 FILLER_23_61
*1519 FILLER_23_67
*1520 FILLER_23_72
*1521 FILLER_23_77
*1522 FILLER_23_85
*1523 FILLER_23_90
*1524 FILLER_23_124
*1525 FILLER_23_148
*1526 FILLER_23_156
*1527 FILLER_23_164
*1528 FILLER_24_0
*1529 FILLER_24_2
*1530 FILLER_24_11
*1531 FILLER_24_15
*1532 FILLER_24_24
*1533 FILLER_24_28
*1534 FILLER_24_31
*1535 FILLER_24_39
*1536 FILLER_24_41
*1537 FILLER_24_58
*1538 FILLER_24_66
*1539 FILLER_24_72
*1540 FILLER_24_77
*1541 FILLER_24_91
*1542 FILLER_24_99
*1543 FILLER_24_103
*1544 FILLER_24_109
*1545 FILLER_24_113
*1546 FILLER_24_121
*1547 FILLER_24_129
*1548 FILLER_24_133
*1549 FILLER_24_141
*1550 FILLER_24_149
*1551 FILLER_24_151
*1552 FILLER_24_159
*1553 FILLER_25_22
*1554 FILLER_25_26
*1555 FILLER_25_46
*1556 FILLER_25_50
*1557 FILLER_25_66
*1558 FILLER_25_84
*1559 FILLER_25_95
*1560 FILLER_25_100
*1561 FILLER_25_121
*1562 FILLER_25_123
*1563 FILLER_25_140
*1564 FILLER_25_148
*1565 FILLER_25_156
*1566 FILLER_25_164
*1567 FILLER_26_0
*1568 FILLER_26_2
*1569 FILLER_26_19
*1570 FILLER_26_27
*1571 FILLER_26_29
*1572 FILLER_26_31
*1573 FILLER_26_61
*1574 FILLER_26_79
*1575 FILLER_26_81
*1576 FILLER_26_91
*1577 FILLER_26_117
*1578 FILLER_26_121
*1579 FILLER_26_139
*1580 FILLER_26_147
*1581 FILLER_26_149
*1582 FILLER_26_151
*1583 FILLER_26_159
*1584 FILLER_26_167
*1585 FILLER_27_0
*1586 FILLER_27_4
*1587 FILLER_27_39
*1588 FILLER_27_47
*1589 FILLER_27_56
*1590 FILLER_27_61
*1591 FILLER_27_69
*1592 FILLER_27_73
*1593 FILLER_27_82
*1594 FILLER_27_91
*1595 FILLER_27_99
*1596 FILLER_27_107
*1597 FILLER_27_115
*1598 FILLER_27_119
*1599 FILLER_27_121
*1600 FILLER_27_129
*1601 FILLER_27_146
*1602 FILLER_27_151
*1603 FILLER_27_159
*1604 FILLER_27_167

*PORTS
clk I
enable I
exp_out[0] O
exp_out[10] O
exp_out[11] O
exp_out[12] O
exp_out[13] O
exp_out[14] O
exp_out[15] O
exp_out[1] O
exp_out[2] O
exp_out[3] O
exp_out[4] O
exp_out[5] O
exp_out[6] O
exp_out[7] O
exp_out[8] O
exp_out[9] O
rst I
x_in[0] I
x_in[1] I
x_in[2] I
x_in[3] I
x_in[4] I
x_in[5] I
x_in[6] I
x_in[7] I

*D_NET *1 0.00103755
*CONN
*I *923:D I *D sky130_fd_sc_hd__dfxtp_1
*I *506:Y O *D sky130_fd_sc_hd__a21oi_1
*CAP
1 *923:D 0.000271317
2 *506:Y 0.000271317
3 *923:D *506:B1 4.23858e-05
4 *923:D *923:CLK 0.000452533
*RES
1 *506:Y *923:D 27.6673 
*END

*D_NET *2 0.00048743
*CONN
*I *922:D I *D sky130_fd_sc_hd__dfxtp_1
*I *532:Y O *D sky130_fd_sc_hd__a311oi_1
*CAP
1 *922:D 0.000122077
2 *532:Y 0.000122077
3 *922:D *429:25 9.76854e-05
4 *922:D *429:29 6.08467e-05
5 *922:D *429:72 8.14604e-05
6 *922:D *453:116 3.28433e-06
*RES
1 *532:Y *922:D 30.976 
*END

*D_NET *3 0.000562432
*CONN
*I *921:D I *D sky130_fd_sc_hd__dfxtp_1
*I *563:Y O *D sky130_fd_sc_hd__a21oi_1
*CAP
1 *921:D 0.000144977
2 *563:Y 0.000144977
3 *921:D *506:A1 1.6352e-05
4 *921:D *599:A 0.000188503
5 *921:D *429:35 6.76229e-05
*RES
1 *563:Y *921:D 31.7689 
*END

*D_NET *4 0.000589375
*CONN
*I *920:D I *D sky130_fd_sc_hd__dfxtp_1
*I *612:Y O *D sky130_fd_sc_hd__a31oi_1
*CAP
1 *920:D 0.000247138
2 *612:Y 0.000247138
3 *920:D *612:A1 2.99929e-05
4 *920:D *32:82 0
5 *920:D *59:20 6.51056e-05
6 *920:D *86:10 0
*RES
1 *612:Y *920:D 33.43 
*END

*D_NET *5 0.0013178
*CONN
*I *919:D I *D sky130_fd_sc_hd__dfxtp_1
*I *660:Y O *D sky130_fd_sc_hd__o22ai_1
*CAP
1 *919:D 0.000479052
2 *660:Y 0.000479052
3 *919:D *57:42 0.000148002
4 *919:D *149:14 0.000203324
5 *919:D *446:18 8.36586e-06
*RES
1 *660:Y *919:D 37.2079 
*END

*D_NET *6 0.00092345
*CONN
*I *918:D I *D sky130_fd_sc_hd__dfxtp_1
*I *726:Y O *D sky130_fd_sc_hd__o22ai_1
*CAP
1 *918:D 0.000242531
2 *726:Y 0.000242531
3 *918:D *666:A 2.40632e-05
4 *918:D *726:A2 1.03594e-05
5 *918:D *726:B1 0.000103829
6 *918:D *33:50 5.69036e-05
7 *918:D *38:146 0.000208319
8 *918:D *48:149 6.6578e-06
9 *918:D *95:44 2.8256e-05
*RES
1 *726:Y *918:D 33.848 
*END

*D_NET *7 0.000799614
*CONN
*I *917:D I *D sky130_fd_sc_hd__dfxtp_1
*I *786:Y O *D sky130_fd_sc_hd__o311ai_1
*CAP
1 *917:D 0.000277529
2 *786:Y 0.000277529
3 *917:D *824:A2 9.60366e-05
4 *917:D *831:A1 3.44254e-06
5 *917:D *835:B2 0
6 *917:D *429:94 3.20069e-06
7 *917:D *429:98 0.000135206
8 *917:D *444:6 6.67095e-06
*RES
1 *786:Y *917:D 34.4293 
*END

*D_NET *8 0.000712527
*CONN
*I *916:D I *D sky130_fd_sc_hd__dfxtp_1
*I *836:Y O *D sky130_fd_sc_hd__o2bb2ai_1
*CAP
1 *916:D 0.000142833
2 *836:Y 0.000142833
3 *916:D *38:335 0.000148525
4 *916:D *59:323 6.00956e-05
5 *916:D *218:20 0.000218239
*RES
1 *836:Y *916:D 32.6023 
*END

*D_NET *9 0.00140875
*CONN
*I *915:D I *D sky130_fd_sc_hd__dfxtp_1
*I *886:Y O *D sky130_fd_sc_hd__o22ai_1
*CAP
1 *915:D 0.000439801
2 *886:Y 0.000439801
3 *915:D *862:B 0.000138164
4 *915:D *886:B1 0.000113968
5 *915:D *101:8 1.07248e-05
6 *915:D *357:18 0.000122098
7 *915:D *385:14 2.94714e-05
8 *915:D *385:26 5.04829e-06
9 *915:D *429:81 1.87611e-05
10 *915:D *453:148 5.77387e-05
11 *915:D *453:152 3.31736e-05
*RES
1 *886:Y *915:D 37.6147 
*END

*D_NET *10 0.000799233
*CONN
*I *932:D I *D sky130_fd_sc_hd__dfxtp_1
*I *889:Y O *D sky130_fd_sc_hd__nor2_1
*CAP
1 *932:D 0.000316842
2 *889:Y 0.000316842
3 *932:D *889:B 1.83992e-05
4 *932:D *932:CLK 0.00014715
*RES
1 *889:Y *932:D 25.4489 
*END

*D_NET *11 0.000530565
*CONN
*I *931:D I *D sky130_fd_sc_hd__dfxtp_1
*I *891:Y O *D sky130_fd_sc_hd__nor2_1
*CAP
1 *931:D 0.000262441
2 *891:Y 0.000262441
3 *931:D *931:CLK 5.68237e-06
4 *931:D *455:14 0
*RES
1 *891:Y *931:D 33.7115 
*END

*D_NET *12 0.000483311
*CONN
*I *930:D I *D sky130_fd_sc_hd__dfxtp_1
*I *893:Y O *D sky130_fd_sc_hd__nor2_1
*CAP
1 *930:D 4.84538e-05
2 *893:Y 4.84538e-05
3 *930:D *893:A 0.000113968
4 *930:D *930:CLK 2.15184e-05
5 *930:D *435:6 6.50586e-05
6 *930:D *435:69 0.000185858
*RES
1 *893:Y *930:D 21.2532 
*END

*D_NET *13 0.00045863
*CONN
*I *929:D I *D sky130_fd_sc_hd__dfxtp_1
*I *895:Y O *D sky130_fd_sc_hd__nor2_1
*CAP
1 *929:D 8.62719e-05
2 *895:Y 8.62719e-05
3 *929:D exp_out[4] 0.000104731
4 *929:D *895:B 6.50586e-05
5 *929:D *929:CLK 1.87611e-05
6 *929:D *20:27 9.75356e-05
*RES
1 *895:Y *929:D 30.2767 
*END

*D_NET *14 0.000534745
*CONN
*I *928:D I *D sky130_fd_sc_hd__dfxtp_1
*I *897:Y O *D sky130_fd_sc_hd__nor2_1
*CAP
1 *928:D 0.000174953
2 *897:Y 0.000174953
3 *928:D *890:A0 5.69404e-05
4 *928:D *896:A1 6.08467e-05
5 *928:D *928:CLK 3.18826e-06
6 *928:D *374:14 6.38636e-05
*RES
1 *897:Y *928:D 31.6618 
*END

*D_NET *15 0.00062818
*CONN
*I *927:D I *D sky130_fd_sc_hd__dfxtp_2
*I *899:Y O *D sky130_fd_sc_hd__nor2_1
*CAP
1 *927:D 0.000166343
2 *899:Y 0.000166343
3 *927:D *891:A 7.71949e-05
4 *927:D *20:70 0.0002183
*RES
1 *899:Y *927:D 33.0175 
*END

*D_NET *16 0.000415815
*CONN
*I *926:D I *D sky130_fd_sc_hd__dfxtp_2
*I *901:Y O *D sky130_fd_sc_hd__nor2_1
*CAP
1 *926:D 0.000157341
2 *901:Y 0.000157341
3 *926:D *899:B 0
4 *926:D *901:B 0.000101133
*RES
1 *901:Y *926:D 31.2171 
*END

*D_NET *17 0.000744294
*CONN
*I *924:D I *D sky130_fd_sc_hd__dfxtp_1
*I *904:Y O *D sky130_fd_sc_hd__a21oi_1
*CAP
1 *924:D 0.000183504
2 *904:Y 0.000183504
3 *924:D *628:A 0.000210484
4 *924:D *429:94 0.000166801
*RES
1 *904:Y *924:D 33.2934 
*END

*D_NET *18 0.000986771
*CONN
*I *933:D I *D sky130_fd_sc_hd__dfxtp_1
*I *906:Y O *D sky130_fd_sc_hd__nor2_1
*CAP
1 *933:D 0.000283181
2 *906:Y 0.000283181
3 *933:D *906:B 0.000386524
4 *933:D *59:20 3.38851e-05
*RES
1 *906:Y *933:D 24.8702 
*END

*D_NET *19 0.000389409
*CONN
*I *925:D I *D sky130_fd_sc_hd__dfxtp_1
*I *907:Y O *D sky130_fd_sc_hd__nor2b_1
*CAP
1 *925:D 0.000169575
2 *907:Y 0.000169575
3 *925:D *716:A 1.87611e-05
4 *925:D *888:S 3.14978e-05
5 *925:D *925:CLK 0
*RES
1 *907:Y *925:D 31.1072 
*END

*D_NET *20 0.0201964
*CONN
*I *925:CLK I *D sky130_fd_sc_hd__dfxtp_1
*I *932:CLK I *D sky130_fd_sc_hd__dfxtp_1
*I *933:CLK I *D sky130_fd_sc_hd__dfxtp_1
*I *920:CLK I *D sky130_fd_sc_hd__dfxtp_1
*I *930:CLK I *D sky130_fd_sc_hd__dfxtp_1
*I *928:CLK I *D sky130_fd_sc_hd__dfxtp_1
*I *919:CLK I *D sky130_fd_sc_hd__dfxtp_1
*I *926:CLK I *D sky130_fd_sc_hd__dfxtp_2
*I *927:CLK I *D sky130_fd_sc_hd__dfxtp_2
*I *918:CLK I *D sky130_fd_sc_hd__dfxtp_1
*I *931:CLK I *D sky130_fd_sc_hd__dfxtp_1
*I *929:CLK I *D sky130_fd_sc_hd__dfxtp_1
*I *527:X O *D sky130_fd_sc_hd__clkbuf_8
*CAP
1 *925:CLK 0.000311829
2 *932:CLK 0.000264237
3 *933:CLK 0.00013805
4 *920:CLK 0.000339744
5 *930:CLK 0.000100522
6 *928:CLK 0.000375444
7 *919:CLK 0.000183201
8 *926:CLK 0
9 *927:CLK 0
10 *918:CLK 0
11 *931:CLK 0.000371206
12 *929:CLK 0.000120826
13 *527:X 0.000871657
14 *20:150 0.000694774
15 *20:124 0.000960115
16 *20:120 0.00077498
17 *20:109 0.000517455
18 *20:96 0.000926225
19 *20:70 0.00156905
20 *20:52 0.00165696
21 *20:35 0.000671788
22 *20:33 0.000755442
23 *20:27 0.00103853
24 *20:23 0.000640997
25 *20:12 0.00101312
26 *920:CLK *892:A0 0.000517172
27 *925:CLK *716:A 5.07314e-05
28 *925:CLK *888:A0 2.85505e-05
29 *925:CLK *888:A1 2.65831e-05
30 *929:CLK *896:A1 4.30017e-06
31 *930:CLK *893:A 6.50727e-05
32 *930:CLK *435:6 3.83564e-05
33 *931:CLK *374:14 7.71803e-05
34 *933:CLK *906:A 0.000176041
35 *933:CLK *906:B 1.37189e-05
36 *933:CLK *59:20 0.000216467
37 *933:CLK *435:80 2.02354e-05
38 *20:12 *567:B 0.000300686
39 *20:12 *603:A1 0.000159924
40 *20:12 *611:A2 0.000175485
41 *20:12 *457:10 0.000195114
42 *20:27 *890:A0 3.24593e-05
43 *20:27 *32:94 3.51113e-05
44 *20:27 *32:96 0.000115504
45 *20:27 *374:14 0
46 *20:27 *454:330 6.1501e-05
47 *20:33 *911:A 0
48 *20:33 *912:A 6.85852e-05
49 *20:33 *374:14 0.000271278
50 *20:35 *374:14 0.000181007
51 *20:70 *596:B1 0.000632756
52 *20:70 *631:A2 1.15389e-05
53 *20:70 *635:A1 0
54 *20:70 *635:A2 7.74853e-06
55 *20:70 *635:B1 9.65752e-06
56 *20:70 *645:A 0.000116452
57 *20:70 *645:B 1.6989e-05
58 *20:70 *660:B1 7.05776e-05
59 *20:70 *662:B1 0.000414601
60 *20:70 *664:B1 7.92757e-06
61 *20:70 *664:B2 6.08467e-05
62 *20:70 *666:A 1.41976e-05
63 *20:70 *38:146 3.99086e-06
64 *20:70 *56:152 4.45999e-05
65 *20:70 *455:8 9.5664e-06
66 *20:70 *457:228 0.000343703
67 *20:96 exp_out[4] 0.000137157
68 *20:96 *890:A0 4.29413e-05
69 *20:96 *909:A 2.02035e-05
70 *20:96 *32:92 3.15496e-05
71 *20:96 *32:94 0.000114548
72 *20:109 *887:A 0
73 *20:109 *890:A0 7.28223e-05
74 *20:109 *32:92 7.00907e-05
75 *20:109 *435:10 0
76 *20:109 *435:16 0
77 *20:120 *887:A 0
78 *20:120 *893:B 6.53431e-05
79 *20:120 *435:10 0
80 *20:124 *892:A0 0.000100255
81 *20:124 *892:A1 0.000136972
82 *925:D *925:CLK 0
83 *927:D *20:70 0.0002183
84 *928:D *928:CLK 3.18826e-06
85 *929:D *929:CLK 1.87611e-05
86 *929:D *20:27 9.75356e-05
87 *930:D *930:CLK 2.15184e-05
88 *931:D *931:CLK 5.68237e-06
89 *932:D *932:CLK 0.00014715
*RES
1 *527:X *20:12 31.1198 
2 *20:12 *929:CLK 11.6364 
3 *20:12 *20:23 5.07872 
4 *20:23 *20:27 14.2218 
5 *20:27 *20:33 19.7973 
6 *20:33 *20:35 6.81502 
7 *20:35 *931:CLK 22.1397 
8 *20:35 *20:52 6.3326 
9 *20:52 *20:70 42.4632 
10 *20:70 *918:CLK 9.24915 
11 *20:52 *927:CLK 9.24915 
12 *20:33 *926:CLK 13.7491 
13 *20:27 *919:CLK 13.3002 
14 *20:23 *20:96 9.72179 
15 *20:96 *928:CLK 19.3434 
16 *20:96 *20:109 7.64553 
17 *20:109 *930:CLK 16.691 
18 *20:109 *20:120 4.73876 
19 *20:120 *20:124 12.4332 
20 *20:124 *920:CLK 19.2802 
21 *20:124 *933:CLK 23.0471 
22 *20:120 *20:150 2.6625 
23 *20:150 *932:CLK 20.5732 
24 *20:150 *925:CLK 21.4269 
*END

*D_NET *21 0.000628086
*CONN
*I *529:C I *D sky130_fd_sc_hd__nor3_1
*I *528:Y O *D sky130_fd_sc_hd__a21oi_1
*CAP
1 *529:C 7.81759e-05
2 *528:Y 7.81759e-05
3 *529:C *528:A1 1.84381e-05
4 *529:C *528:A2 0.000182946
5 *529:C *530:B1 2.96784e-06
6 *529:C *902:B1_N 0.000267382
*RES
1 *528:Y *529:C 22.4287 
*END

*D_NET *22 0.000959507
*CONN
*I *530:B1 I *D sky130_fd_sc_hd__a31oi_1
*I *529:Y O *D sky130_fd_sc_hd__nor3_1
*CAP
1 *530:B1 0.000300699
2 *529:Y 0.000300699
3 *530:B1 *529:B 9.04906e-05
4 *530:B1 *902:A2 5.04829e-06
5 *530:B1 *902:B1_N 1.68951e-06
6 *530:B1 *59:233 0
7 *530:B1 *385:40 0.000205312
8 *530:B1 *429:25 3.87022e-06
9 *530:B1 *461:59 4.87301e-05
10 *529:C *530:B1 2.96784e-06
*RES
1 *529:Y *530:B1 33.9654 
*END

*D_NET *23 0.000427622
*CONN
*I *532:A3 I *D sky130_fd_sc_hd__a311oi_1
*I *530:Y O *D sky130_fd_sc_hd__a31oi_1
*CAP
1 *532:A3 0.000164561
2 *530:Y 0.000164561
3 *532:A3 *453:116 3.20597e-05
4 *532:A3 *461:59 6.64392e-05
*RES
1 *530:Y *532:A3 30.8842 
*END

*D_NET *24 0.000505149
*CONN
*I *532:B1 I *D sky130_fd_sc_hd__a311oi_1
*I *531:Y O *D sky130_fd_sc_hd__nor2_1
*CAP
1 *532:B1 0.000122514
2 *531:Y 0.000122514
3 *532:B1 *32:54 0.000195438
4 *532:B1 *32:64 6.46815e-05
*RES
1 *531:Y *532:B1 22.0188 
*END

*D_NET *25 0.000710529
*CONN
*I *563:A1 I *D sky130_fd_sc_hd__a21oi_1
*I *533:Y O *D sky130_fd_sc_hd__nand2b_1
*CAP
1 *563:A1 0.000200857
2 *533:Y 0.000200857
3 *563:A1 *502:B 0.000308814
*RES
1 *533:Y *563:A1 21.9947 
*END

*D_NET *26 0.0328465
*CONN
*I *853:A I *D sky130_fd_sc_hd__or3_1
*I *544:A1 I *D sky130_fd_sc_hd__a21oi_1
*I *603:A1 I *D sky130_fd_sc_hd__a22o_1
*I *846:B I *D sky130_fd_sc_hd__nand3_1
*I *789:B I *D sky130_fd_sc_hd__nor2_1
*I *782:B2 I *D sky130_fd_sc_hd__a221o_1
*I *701:B I *D sky130_fd_sc_hd__nand3_1
*I *666:A I *D sky130_fd_sc_hd__nor3_1
*I *676:B I *D sky130_fd_sc_hd__nand2_1
*I *534:Y O *D sky130_fd_sc_hd__inv_2
*CAP
1 *853:A 0.000112011
2 *544:A1 0
3 *603:A1 0.000980404
4 *846:B 0.00018429
5 *789:B 0.00173943
6 *782:B2 1.90248e-05
7 *701:B 0.000220621
8 *666:A 0.000508378
9 *676:B 0.000657723
10 *534:Y 1.47608e-05
11 *26:146 0.00151667
12 *26:140 0.00176266
13 *26:87 0.00195805
14 *26:55 0.00131166
15 *26:28 0.0023206
16 *26:24 0.00224072
17 *26:16 0.00183556
18 *26:8 0.00181951
19 *603:A1 *537:B1 5.42756e-05
20 *603:A1 *539:A2 9.78334e-05
21 *603:A1 *550:B1 4.78545e-05
22 *603:A1 *598:A 6.50586e-05
23 *603:A1 *704:A2 0.000110306
24 *603:A1 *705:A3 7.31172e-06
25 *603:A1 *822:B 0.000258128
26 *603:A1 *35:20 0.000147162
27 *603:A1 *89:10 0.000582522
28 *603:A1 *431:12 8.73145e-05
29 *603:A1 *455:456 0.000415515
30 *666:A *559:A 9.08436e-06
31 *666:A *664:A2 3.44412e-06
32 *666:A *38:64 5.47232e-06
33 *666:A *38:146 4.23907e-06
34 *666:A *56:141 5.04221e-05
35 *666:A *56:152 1.1718e-05
36 *666:A *56:154 6.403e-05
37 *666:A *56:286 1.53621e-05
38 *676:B *684:A2 1.03594e-05
39 *676:B *684:B1 2.20471e-05
40 *676:B *684:C1 5.481e-05
41 *676:B *685:A2 4.89512e-05
42 *676:B *685:B1 8.16315e-05
43 *676:B *687:A1 0.000172591
44 *676:B *687:A2 5.63909e-05
45 *676:B *749:D1 0.000108031
46 *676:B *771:A 0.000131896
47 *676:B *884:B 1.83758e-05
48 *676:B *28:82 1.19841e-05
49 *676:B *37:126 0
50 *676:B *40:272 3.82228e-05
51 *676:B *40:278 0.000110886
52 *676:B *40:284 7.09666e-06
53 *676:B *165:16 5.11545e-05
54 *676:B *189:14 0.000113066
55 *676:B *236:20 6.0235e-05
56 *701:B *661:B 0.000164354
57 *701:B *669:B 1.65872e-05
58 *701:B *701:A 4.31603e-06
59 *701:B *701:C 6.27718e-05
60 *701:B *726:B1 0.000103829
61 *701:B *726:B2 0.000200794
62 *701:B *33:50 3.86732e-05
63 *701:B *40:469 5.01608e-05
64 *782:B2 *782:B1 1.60561e-05
65 *782:B2 *795:B 1.47046e-05
66 *782:B2 *878:A2 1.5714e-05
67 *789:B *679:A 8.93503e-05
68 *789:B *755:A2 1.30371e-05
69 *789:B *755:B1 3.88358e-05
70 *789:B *789:A 6.50586e-05
71 *789:B *799:B1 4.75721e-06
72 *789:B *821:A2 3.22583e-05
73 *789:B *59:344 0.000263407
74 *789:B *72:28 1.03403e-05
75 *789:B *97:33 4.19864e-05
76 *789:B *168:14 8.25029e-05
77 *789:B *199:39 0
78 *789:B *277:12 0.000245238
79 *789:B *286:16 0
80 *789:B *422:90 6.90101e-05
81 *789:B *455:224 0
82 *789:B *455:555 0.000623409
83 *846:B *846:A 4.76161e-06
84 *846:B *847:A1 3.17103e-05
85 *846:B *44:151 8.97449e-05
86 *846:B *454:456 0.000118917
87 *853:A *853:C 0.000136293
88 *853:A *39:30 9.82838e-06
89 *853:A *101:34 4.63742e-05
90 *853:A *393:47 0.000185112
91 *853:A *429:10 0
92 *26:8 *56:612 6.08467e-05
93 *26:8 *204:109 6.08467e-05
94 *26:16 *724:B1 3.92533e-05
95 *26:16 *733:A 0
96 *26:16 *769:A1 4.5598e-05
97 *26:16 *769:A2 0
98 *26:16 *57:220 0.000235836
99 *26:16 *57:231 1.23147e-05
100 *26:16 *226:24 4.19401e-06
101 *26:16 *237:34 0.000155495
102 *26:16 *258:8 0.000463613
103 *26:16 *455:391 0
104 *26:24 *697:B 0.000176119
105 *26:24 *724:B1 0.000547565
106 *26:24 *801:A1 4.15574e-05
107 *26:24 *847:A1 2.36617e-05
108 *26:24 *871:A1 0.000122844
109 *26:24 *878:A2 0
110 *26:24 *38:227 2.68327e-05
111 *26:24 *40:186 0.000223776
112 *26:24 *40:188 0.000270995
113 *26:24 *40:194 0.00014431
114 *26:24 *204:52 0.000118002
115 *26:24 *204:69 0.000857859
116 *26:28 *814:B 1.09352e-05
117 *26:28 *821:A2 4.702e-05
118 *26:28 *30:318 0
119 *26:28 *158:26 0.000111752
120 *26:28 *422:48 0.00081134
121 *26:28 *454:218 0
122 *26:55 *749:D1 7.5782e-06
123 *26:55 *815:A2 0.000357929
124 *26:55 *816:B1 0.000107496
125 *26:55 *38:146 2.8182e-06
126 *26:55 *38:159 1.4091e-06
127 *26:55 *189:14 0.000369586
128 *26:55 *422:125 0.000324343
129 *26:55 *445:10 1.65872e-05
130 *26:87 *821:A2 1.48597e-05
131 *26:140 *861:B2 2.15676e-05
132 *26:140 *32:29 1.73346e-05
133 *26:140 *32:39 7.22607e-05
134 *26:140 *39:30 0.000168126
135 *26:140 *57:205 8.66976e-05
136 *26:140 *57:220 1.5714e-05
137 *26:140 *237:34 6.2925e-05
138 *26:140 *397:134 7.27651e-06
139 *26:146 *539:A2 1.25793e-05
140 *26:146 *550:B1 3.5534e-06
141 *26:146 *57:178 0.000112673
142 *26:146 *57:205 2.73766e-05
143 *26:146 *101:34 0.0009963
144 *26:146 *397:134 1.99238e-06
145 *918:D *666:A 2.40632e-05
146 *20:12 *603:A1 0.000159924
147 *20:70 *666:A 1.41976e-05
*RES
1 *534:Y *26:8 14.4725 
2 *26:8 *26:16 21.7696 
3 *26:16 *26:24 38.8802 
4 *26:24 *26:28 5.71338 
5 *26:28 *676:B 42.0201 
6 *26:28 *26:55 19.3648 
7 *26:55 *666:A 27.0389 
8 *26:55 *701:B 25.2949 
9 *26:24 *26:87 0.279355 
10 *26:87 *782:B2 17.6714 
11 *26:87 *789:B 26.9725 
12 *26:16 *846:B 14.6023 
13 *26:8 *26:140 6.0155 
14 *26:140 *26:146 5.2506 
15 *26:146 *603:A1 43.4191 
16 *26:146 *544:A1 13.7491 
17 *26:140 *853:A 21.2338 
*END

*D_NET *27 0.00454824
*CONN
*I *523:A I *D sky130_fd_sc_hd__clkbuf_8
*I *527:A I *D sky130_fd_sc_hd__clkbuf_8
*I *535:X O *D sky130_fd_sc_hd__clkbuf_8
*CAP
1 *523:A 5.22294e-05
2 *527:A 0
3 *535:X 9.33841e-05
4 *27:43 0.000365805
5 *27:23 0.00138365
6 *27:15 0.00174189
7 *27:6 0.000138053
8 *523:A *550:A2 3.1202e-05
9 *27:6 *550:B1 3.05606e-05
10 *27:15 *525:A 5.39635e-06
11 *27:15 *550:B1 1.40777e-05
12 *27:15 *850:A2 5.39635e-06
13 *27:23 *871:A2 0
14 *27:23 *40:12 0
15 *27:23 *40:569 0
16 *27:23 *88:12 4.20184e-06
17 *27:23 *89:53 1.05746e-05
18 *27:23 *101:34 0
19 *27:23 *422:139 0
20 *27:23 *434:26 1.29115e-05
21 *27:23 *455:439 0.000106984
22 *27:23 *455:443 0.000226161
23 *27:43 *525:A 3.09803e-05
24 *27:43 *627:A 7.3844e-06
25 *27:43 *850:A2 0.000174603
26 *27:43 *431:72 0.000112796
*RES
1 *535:X *27:6 11.0938 
2 *27:6 *27:15 5.58995 
3 *27:15 *27:23 10.2257 
4 *27:23 *527:A 13.7491 
5 *27:15 *27:43 8.97678 
6 *27:43 *523:A 15.0271 
*END

*D_NET *28 0.00910158
*CONN
*I *587:A1 I *D sky130_fd_sc_hd__o21bai_1
*I *682:A I *D sky130_fd_sc_hd__nand2_1
*I *774:B1_N I *D sky130_fd_sc_hd__a21bo_1
*I *681:A I *D sky130_fd_sc_hd__nor3_1
*I *557:A I *D sky130_fd_sc_hd__clkinv_1
*I *779:B_N I *D sky130_fd_sc_hd__nor2b_1
*I *617:B I *D sky130_fd_sc_hd__and2_0
*I *549:A I *D sky130_fd_sc_hd__or2_1
*I *676:A I *D sky130_fd_sc_hd__nand2_1
*I *589:A I *D sky130_fd_sc_hd__nor2_1
*I *673:C1 I *D sky130_fd_sc_hd__o211ai_1
*I *536:X O *D sky130_fd_sc_hd__buf_4
*CAP
1 *587:A1 0.000161567
2 *682:A 2.47246e-05
3 *774:B1_N 2.27714e-05
4 *681:A 0.000114875
5 *557:A 0.000177194
6 *779:B_N 7.16852e-05
7 *617:B 0
8 *549:A 0
9 *676:A 2.3034e-05
10 *589:A 0.000127062
11 *673:C1 5.68313e-05
12 *536:X 0.000211114
13 *28:84 7.16852e-05
14 *28:82 0.000279188
15 *28:80 0.000316085
16 *28:76 0.000170057
17 *28:69 0.000116914
18 *28:60 0.000312992
19 *28:54 0.000550392
20 *28:31 0.000549168
21 *28:20 0.000491942
22 *28:10 0.000690241
23 *557:A *687:A1 0.000125407
24 *557:A *779:A 5.03545e-06
25 *557:A *37:114 0.000112367
26 *557:A *83:59 0
27 *557:A *107:18 1.6352e-05
28 *587:A1 *587:B1_N 6.08467e-05
29 *587:A1 *594:B1 1.03594e-05
30 *587:A1 *59:46 2.16355e-05
31 *587:A1 *64:10 0.000155293
32 *587:A1 *77:21 4.145e-05
33 *587:A1 *77:34 0.000194187
34 *587:A1 *457:119 1.09386e-05
35 *589:A *693:D 8.33721e-06
36 *589:A *30:54 3.12835e-05
37 *589:A *30:56 1.27831e-06
38 *589:A *56:164 0.000170438
39 *589:A *131:20 5.49916e-05
40 *673:C1 *671:A1 7.92757e-06
41 *673:C1 *674:B1 2.16355e-05
42 *681:A *681:C 1.34231e-05
43 *681:A *881:B1 2.91559e-06
44 *682:A *56:177 3.20407e-05
45 *682:A *56:179 1.94364e-05
46 *682:A *419:28 5.02079e-05
47 *774:B1_N *455:141 5.31074e-05
48 *779:B_N *617:A 2.16355e-05
49 *779:B_N *685:C1 0.000209636
50 *779:B_N *779:A 0.000110458
51 *779:B_N *40:249 1.65872e-05
52 *28:10 *649:A2 0.000159742
53 *28:10 *77:21 2.9803e-05
54 *28:10 *457:119 3.79352e-05
55 *28:10 *457:121 6.01649e-05
56 *28:20 *644:A2 0.000556371
57 *28:20 *30:56 5.49916e-05
58 *28:20 *422:38 5.99155e-05
59 *28:20 *454:77 8.82033e-05
60 *28:31 *604:A_N 6.75453e-05
61 *28:31 *673:B1 8.67924e-06
62 *28:31 *37:22 2.77625e-06
63 *28:54 *604:A_N 1.88152e-05
64 *28:54 *682:B 2.41274e-06
65 *28:54 *683:A1 6.08467e-05
66 *28:54 *37:18 2.77625e-06
67 *28:54 *56:164 0.000160415
68 *28:54 *56:177 0.000219578
69 *28:54 *56:179 2.99506e-05
70 *28:54 *454:88 5.50788e-05
71 *28:54 *454:276 0.000155293
72 *28:60 *692:B2 0.000229154
73 *28:60 *56:179 8.69672e-05
74 *28:60 *419:28 0.000130225
75 *28:60 *455:94 5.94319e-06
76 *28:60 *455:141 6.78439e-05
77 *28:69 *549:B 6.08467e-05
78 *28:69 *455:141 3.52879e-05
79 *28:76 *455:141 7.92416e-05
80 *28:80 *681:B 2.29386e-05
81 *28:80 *771:A 0.000197852
82 *28:80 *779:A 7.47095e-05
83 *28:82 *687:A1 8.36586e-06
84 *28:82 *771:A 7.12721e-05
85 *28:82 *779:A 3.37762e-05
86 *28:82 *40:272 3.51505e-05
87 *676:B *28:82 1.19841e-05
*RES
1 *536:X *28:10 19.4283 
2 *28:10 *28:20 13.2615 
3 *28:20 *673:C1 10.5271 
4 *28:20 *28:31 2.96592 
5 *28:31 *589:A 22.1574 
6 *28:31 *28:54 21.6281 
7 *28:54 *28:60 10.9376 
8 *28:60 *676:A 9.82786 
9 *28:60 *28:69 1.8326 
10 *28:69 *549:A 9.24915 
11 *28:69 *28:76 1.278 
12 *28:76 *28:80 7.993 
13 *28:80 *28:82 2.6625 
14 *28:82 *28:84 4.5 
15 *28:84 *617:B 9.24915 
16 *28:84 *779:B_N 12.2151 
17 *28:82 *557:A 17.6896 
18 *28:80 *681:A 16.3387 
19 *28:76 *774:B1_N 9.97254 
20 *28:54 *682:A 14.7506 
21 *28:10 *587:A1 19.0037 
*END

*D_NET *29 0.000940112
*CONN
*I *539:A2 I *D sky130_fd_sc_hd__o21ai_0
*I *537:X O *D sky130_fd_sc_hd__o21a_1
*CAP
1 *539:A2 0.000215957
2 *537:X 0.000215957
3 *539:A2 *539:A1 9.81959e-05
4 *539:A2 *539:B1 5.23605e-05
5 *539:A2 *544:A2 4.10943e-05
6 *539:A2 *35:20 0.000101177
7 *539:A2 *44:61 6.27718e-05
8 *539:A2 *57:110 1.22289e-05
9 *539:A2 *57:119 2.99567e-05
10 *603:A1 *539:A2 9.78334e-05
11 *26:146 *539:A2 1.25793e-05
*RES
1 *537:X *539:A2 33.791 
*END

*D_NET *30 0.039144
*CONN
*I *633:B I *D sky130_fd_sc_hd__and2_1
*I *559:B I *D sky130_fd_sc_hd__nand2_1
*I *542:B I *D sky130_fd_sc_hd__nor2_1
*I *669:B I *D sky130_fd_sc_hd__nand2b_1
*I *665:A1 I *D sky130_fd_sc_hd__a21oi_1
*I *758:B1 I *D sky130_fd_sc_hd__o21ai_0
*I *791:A1 I *D sky130_fd_sc_hd__a21oi_1
*I *818:A I *D sky130_fd_sc_hd__nor3_1
*I *792:B1 I *D sky130_fd_sc_hd__o22ai_1
*I *885:A1 I *D sky130_fd_sc_hd__a2111oi_2
*I *677:B I *D sky130_fd_sc_hd__nand2b_1
*I *678:A2 I *D sky130_fd_sc_hd__o22ai_1
*I *701:C I *D sky130_fd_sc_hd__nand3_1
*I *582:A I *D sky130_fd_sc_hd__nand2_1
*I *604:A_N I *D sky130_fd_sc_hd__nand2b_1
*I *682:B I *D sky130_fd_sc_hd__nand2_1
*I *689:B1 I *D sky130_fd_sc_hd__o21ai_0
*I *649:A2 I *D sky130_fd_sc_hd__a21oi_1
*I *571:B I *D sky130_fd_sc_hd__and2_1
*I *690:C I *D sky130_fd_sc_hd__nor3_1
*I *613:B I *D sky130_fd_sc_hd__nor3b_1
*I *787:B_N I *D sky130_fd_sc_hd__nor2b_1
*I *776:A2 I *D sky130_fd_sc_hd__a32oi_1
*I *695:B_N I *D sky130_fd_sc_hd__nor2b_1
*I *638:A1 I *D sky130_fd_sc_hd__o21ai_0
*I *680:A I *D sky130_fd_sc_hd__nor2b_1
*I *639:B I *D sky130_fd_sc_hd__nand2_1
*I *516:A I *D sky130_fd_sc_hd__inv_1
*I *573:B I *D sky130_fd_sc_hd__nor2_1
*I *867:B2 I *D sky130_fd_sc_hd__o221ai_1
*I *642:A1 I *D sky130_fd_sc_hd__o22ai_1
*I *865:A I *D sky130_fd_sc_hd__nor2b_1
*I *538:X O *D sky130_fd_sc_hd__buf_4
*CAP
1 *633:B 0
2 *559:B 0
3 *542:B 0
4 *669:B 0.000696137
5 *665:A1 0
6 *758:B1 0
7 *791:A1 0
8 *818:A 0.000468015
9 *792:B1 3.85319e-05
10 *885:A1 0
11 *677:B 2.80554e-05
12 *678:A2 0
13 *701:C 1.82692e-05
14 *582:A 1.61853e-05
15 *604:A_N 7.39572e-05
16 *682:B 0.000118439
17 *689:B1 0
18 *649:A2 0.000171706
19 *571:B 5.72989e-05
20 *690:C 1.39556e-05
21 *613:B 0
22 *787:B_N 0.000203518
23 *776:A2 0
24 *695:B_N 0
25 *638:A1 0
26 *680:A 0.0003022
27 *639:B 0
28 *516:A 5.90919e-05
29 *573:B 2.06324e-05
30 *867:B2 1.87886e-05
31 *642:A1 0.000123282
32 *865:A 0
33 *538:X 0
34 *30:349 0.000765569
35 *30:337 0.000487608
36 *30:328 0.00074606
37 *30:318 0.00160105
38 *30:287 0.00132309
39 *30:276 0.00035763
40 *30:270 0.000273684
41 *30:268 0.000893449
42 *30:255 0.000157033
43 *30:251 0.000331984
44 *30:243 0.000587594
45 *30:228 0.000781705
46 *30:220 0.000713802
47 *30:169 0.000346273
48 *30:167 0.000235707
49 *30:131 0.000485962
50 *30:116 0.000422418
51 *30:107 0.000150223
52 *30:83 0.000468348
53 *30:79 0.000610063
54 *30:64 0.000586062
55 *30:60 0.000366702
56 *30:56 0.000402359
57 *30:54 0.000650434
58 *30:41 0.000893182
59 *30:32 0.000510206
60 *30:18 0.000290653
61 *30:12 0.000335199
62 *30:6 0.000388264
63 *516:A *103:10 5.56461e-05
64 *516:A *422:14 6.61766e-05
65 *516:A *422:38 0.00014472
66 *571:B *659:B1 0.000107496
67 *571:B *38:23 3.82228e-05
68 *582:A *582:B 4.31603e-06
69 *604:A_N *37:22 3.95516e-05
70 *604:A_N *56:164 0.000109427
71 *604:A_N *131:20 0.000202726
72 *642:A1 *642:A2 2.16355e-05
73 *642:A1 *642:B2 1.1957e-05
74 *642:A1 *643:A2 7.2002e-05
75 *642:A1 *866:B 0.000114594
76 *642:A1 *455:22 0.000136817
77 *649:A2 *556:A 7.50722e-05
78 *649:A2 *652:B1 0.000258002
79 *649:A2 *40:608 6.64609e-05
80 *649:A2 *77:21 0.000130099
81 *649:A2 *457:121 3.90689e-06
82 *649:A2 *457:125 1.89195e-05
83 *669:B *669:A_N 8.13369e-05
84 *669:B *749:A1 0.000109421
85 *669:B *749:A2 6.08467e-05
86 *669:B *749:C1 0.00010085
87 *669:B *797:B1 6.27718e-05
88 *669:B *798:B1 0.00015607
89 *669:B *40:453 1.18671e-05
90 *669:B *40:469 9.35709e-05
91 *669:B *237:34 0.000203595
92 *677:B *678:A1 4.19797e-05
93 *677:B *693:C 1.47046e-05
94 *677:B *749:D1 3.39118e-05
95 *677:B *37:114 7.23277e-06
96 *677:B *455:113 9.12416e-06
97 *680:A *639:A 9.12416e-06
98 *680:A *640:B1 3.76047e-05
99 *680:A *680:B_N 9.81842e-05
100 *680:A *774:A1 0.000142194
101 *680:A *777:A2 5.51483e-06
102 *680:A *881:B1 1.32488e-05
103 *680:A *884:B 0.000498547
104 *680:A *41:12 0.000143371
105 *680:A *455:141 6.50727e-05
106 *682:B *689:A2 4.76794e-05
107 *682:B *37:18 0.000107496
108 *682:B *62:73 0.000124975
109 *682:B *454:86 0.000256037
110 *690:C *748:C 0.000116764
111 *690:C *457:154 0.000116764
112 *701:C *661:B 2.16355e-05
113 *787:B_N *640:A2 0.000278797
114 *787:B_N *776:A3 9.28915e-06
115 *787:B_N *875:B 7.26959e-06
116 *787:B_N *879:A2 6.50727e-05
117 *792:B1 *792:B2 5.04829e-06
118 *792:B1 *793:B1 6.7671e-06
119 *792:B1 *793:B2 0.000109421
120 *792:B1 *38:389 1.50924e-05
121 *818:A *723:A2 8.06912e-05
122 *818:A *793:B2 2.59402e-05
123 *818:A *818:C 2.14842e-06
124 *818:A *819:A1 4.51176e-05
125 *818:A *821:A1 1.30371e-05
126 *818:A *836:A1_N 0.000134829
127 *818:A *68:30 0
128 *818:A *209:21 6.03216e-05
129 *818:A *210:14 2.55661e-06
130 *818:A *210:26 0.000209858
131 *818:A *212:30 0.0004217
132 *867:B2 *867:B1 1.05106e-05
133 *867:B2 *454:18 0
134 *30:12 *645:B 0.000179286
135 *30:12 *867:C1 6.50586e-05
136 *30:12 *868:B1 1.65872e-05
137 *30:12 *57:10 8.62625e-06
138 *30:12 *454:18 7.41203e-05
139 *30:18 *642:B1 0
140 *30:18 *645:B 0.000233854
141 *30:18 *56:86 0
142 *30:32 *867:B1 1.78942e-05
143 *30:41 *588:A1 3.14978e-05
144 *30:41 *588:A2 6.08467e-05
145 *30:41 *588:A3 2.56976e-05
146 *30:41 *588:B1 0.000164815
147 *30:41 *593:A2 2.16355e-05
148 *30:41 *867:A1 0.000107496
149 *30:41 *867:A2 2.07365e-05
150 *30:41 *867:B1 2.32625e-05
151 *30:41 *64:8 0.000154145
152 *30:41 *79:10 6.92705e-05
153 *30:41 *83:38 6.7671e-06
154 *30:41 *83:53 3.57011e-05
155 *30:54 *541:A 0.000114659
156 *30:54 *573:A 0.000247443
157 *30:54 *33:27 0.000178737
158 *30:54 *56:156 0
159 *30:54 *56:164 0
160 *30:54 *64:8 6.08467e-05
161 *30:54 *83:53 1.34424e-05
162 *30:54 *131:20 9.7112e-06
163 *30:54 *422:38 2.21072e-05
164 *30:56 *693:D 0
165 *30:56 *131:20 1.32841e-05
166 *30:56 *422:38 4.05915e-05
167 *30:60 *513:A 0
168 *30:60 *613:A 1.36691e-05
169 *30:60 *689:A2 5.27819e-05
170 *30:60 *691:B1 0.000137936
171 *30:60 *693:D 0
172 *30:60 *236:20 0
173 *30:60 *422:38 0.000367236
174 *30:64 *613:A 4.03662e-05
175 *30:64 *422:38 0.000162951
176 *30:79 *613:A 2.37299e-05
177 *30:79 *613:C_N 0.000326884
178 *30:79 *641:A2 0.00012316
179 *30:79 *641:B1 8.63789e-05
180 *30:79 *70:10 0.000147325
181 *30:79 *131:20 0.00011818
182 *30:79 *422:14 0
183 *30:79 *454:103 6.9202e-05
184 *30:83 *639:A 3.64929e-05
185 *30:83 *641:A1 0
186 *30:83 *881:B1 1.583e-05
187 *30:83 *126:26 2.1203e-06
188 *30:83 *131:20 0
189 *30:107 *641:A2 1.92336e-05
190 *30:107 *70:10 2.41483e-05
191 *30:116 *641:A2 0.000169041
192 *30:116 *70:10 4.60283e-05
193 *30:116 *454:118 1.92172e-05
194 *30:116 *454:126 0.000267404
195 *30:131 *776:A1 1.07248e-05
196 *30:131 *776:A3 7.14746e-05
197 *30:131 *184:10 2.33193e-05
198 *30:131 *454:126 2.80656e-05
199 *30:131 *454:133 9.90116e-05
200 *30:169 *659:B1 0.00040517
201 *30:169 *689:A1 0.000262261
202 *30:169 *689:A2 0.000109427
203 *30:169 *692:A2_N 7.66391e-06
204 *30:169 *38:23 5.12085e-05
205 *30:169 *62:73 5.20167e-05
206 *30:220 *633:A 3.07133e-05
207 *30:220 *645:B 0.000356328
208 *30:220 *660:B1 0
209 *30:220 *797:A2 0
210 *30:220 *57:10 0.000158978
211 *30:220 *57:42 0.000410731
212 *30:228 *582:B 5.24138e-05
213 *30:228 *596:A1 6.08467e-05
214 *30:228 *597:B1 0.000250405
215 *30:228 *633:A 3.57216e-05
216 *30:228 *634:A1 0.000134054
217 *30:228 *634:C1 6.27782e-05
218 *30:228 *635:B1 0.000202726
219 *30:228 *32:151 8.29191e-05
220 *30:228 *123:6 6.64392e-05
221 *30:243 *658:A 0.000118792
222 *30:243 *658:B 0.00011818
223 *30:243 *32:151 5.16447e-05
224 *30:243 *51:10 9.20744e-05
225 *30:243 *51:140 4.34109e-05
226 *30:243 *86:10 0
227 *30:243 *457:82 0
228 *30:251 *559:A 6.36477e-05
229 *30:251 *583:A1 3.75404e-05
230 *30:251 *668:B1_N 0.000174786
231 *30:251 *674:A2 0.000253916
232 *30:251 *48:149 0.000158371
233 *30:255 *542:A 1.24272e-05
234 *30:255 *661:B 7.50872e-05
235 *30:255 *34:31 4.84944e-05
236 *30:255 *95:57 0.00014158
237 *30:255 *95:76 3.31733e-05
238 *30:268 *542:A 3.98252e-05
239 *30:268 *726:B2 2.08702e-05
240 *30:268 *816:A1 2.99506e-05
241 *30:268 *95:57 1.09644e-05
242 *30:270 *726:B2 0.000222536
243 *30:270 *816:A1 0.000233003
244 *30:276 *684:A2 9.12416e-06
245 *30:276 *726:B2 7.53416e-05
246 *30:276 *749:D1 1.82085e-05
247 *30:276 *816:A1 9.12416e-06
248 *30:276 *81:48 2.57465e-06
249 *30:276 *95:44 1.11816e-05
250 *30:276 *158:26 2.0456e-06
251 *30:276 *431:14 1.34048e-05
252 *30:276 *431:24 4.17223e-05
253 *30:287 *678:A1 0.000309785
254 *30:287 *684:A2 3.0703e-05
255 *30:287 *749:D1 0.000399513
256 *30:318 *753:B1 0.000212189
257 *30:318 *758:A2 0.00015533
258 *30:318 *773:B1 2.16355e-05
259 *30:318 *781:A2 6.50586e-05
260 *30:318 *40:200 1.5714e-05
261 *30:318 *62:94 1.91391e-05
262 *30:318 *419:43 0.00112377
263 *30:318 *422:44 0
264 *30:318 *422:48 0
265 *30:318 *454:218 5.31961e-05
266 *30:328 *771:A 7.18659e-05
267 *30:328 *773:B1 8.42542e-05
268 *30:328 *773:C1 0.000100106
269 *30:328 *878:A2 1.27597e-05
270 *30:328 *878:B1 0.000116676
271 *30:328 *885:B1 0.000109421
272 *30:328 *371:26 0.000146276
273 *30:328 *455:220 4.92437e-05
274 *30:337 *751:A 6.08467e-05
275 *30:337 *751:B 6.08467e-05
276 *30:337 *791:A2 3.46116e-05
277 *30:337 *878:B1 0.000207901
278 *30:337 *884:C_N 4.34539e-05
279 *30:337 *37:398 2.58757e-05
280 *30:337 *40:379 0.000299994
281 *30:337 *239:8 0.000107496
282 *30:337 *263:54 0.000157107
283 *30:349 *792:A1 0.000123392
284 *30:349 *793:A1_N 8.54947e-05
285 *30:349 *56:428 4.71207e-05
286 *30:349 *68:19 8.19457e-05
287 *30:349 *168:14 0.00010665
288 *30:349 *209:21 0.000146911
289 *30:349 *210:14 3.3239e-06
290 *589:A *30:54 3.12835e-05
291 *589:A *30:56 1.27831e-06
292 *701:B *669:B 1.65872e-05
293 *701:B *701:C 6.27718e-05
294 *26:28 *30:318 0
295 *28:10 *649:A2 0.000159742
296 *28:20 *30:56 5.49916e-05
297 *28:31 *604:A_N 6.75453e-05
298 *28:54 *604:A_N 1.88152e-05
299 *28:54 *682:B 2.41274e-06
*RES
1 *538:X *30:6 13.7491 
2 *30:6 *30:12 8.85575 
3 *30:12 *30:18 13.3235 
4 *30:18 *865:A 9.24915 
5 *30:18 *642:A1 13.8548 
6 *30:12 *30:32 1.278 
7 *30:32 *867:B2 9.82786 
8 *30:32 *30:41 11.2609 
9 *30:41 *573:B 9.82786 
10 *30:41 *30:54 15.7813 
11 *30:54 *30:56 3.493 
12 *30:56 *30:60 7.96307 
13 *30:60 *30:64 7.57775 
14 *30:64 *516:A 11.8835 
15 *30:64 *30:79 15.2154 
16 *30:79 *30:83 7.993 
17 *30:83 *639:B 13.7491 
18 *30:83 *680:A 24.2685 
19 *30:79 *30:107 0.723396 
20 *30:107 *638:A1 9.24915 
21 *30:107 *30:116 5.73894 
22 *30:116 *695:B_N 9.24915 
23 *30:116 *30:131 14.9018 
24 *30:131 *776:A2 9.24915 
25 *30:131 *787:B_N 22.3612 
26 *30:64 *613:B 9.24915 
27 *30:60 *690:C 15.0271 
28 *30:56 *30:167 4.5 
29 *30:167 *30:169 6.26943 
30 *30:169 *571:B 11.1059 
31 *30:169 *649:A2 25.4794 
32 *30:167 *689:B1 9.24915 
33 *30:167 *682:B 14.4335 
34 *30:54 *604:A_N 17.2456 
35 *30:6 *30:220 16.0932 
36 *30:220 *30:228 13.5516 
37 *30:228 *582:A 9.82786 
38 *30:228 *30:243 17.3773 
39 *30:243 *30:251 8.15026 
40 *30:251 *30:255 7.57775 
41 *30:255 *701:C 14.4725 
42 *30:255 *30:268 2.14954 
43 *30:268 *30:270 4.73876 
44 *30:270 *30:276 4.39679 
45 *30:276 *678:A2 13.7491 
46 *30:276 *30:287 8.1707 
47 *30:287 *677:B 14.7178 
48 *30:287 *30:318 20.3184 
49 *30:318 *30:328 20.5788 
50 *30:328 *885:A1 9.24915 
51 *30:328 *30:337 8.51196 
52 *30:337 *30:349 16.1644 
53 *30:349 *792:B1 15.0271 
54 *30:349 *818:A 27.6967 
55 *30:337 *791:A1 9.24915 
56 *30:318 *758:B1 9.24915 
57 *30:270 *665:A1 13.7491 
58 *30:268 *669:B 28.416 
59 *30:251 *542:B 9.24915 
60 *30:243 *559:B 9.24915 
61 *30:220 *633:B 9.24915 
*END

*D_NET *31 0.000506367
*CONN
*I *544:A2 I *D sky130_fd_sc_hd__a21oi_1
*I *539:Y O *D sky130_fd_sc_hd__o21ai_0
*CAP
1 *544:A2 0.000137682
2 *539:Y 0.000137682
3 *544:A2 *539:B1 1.5714e-05
4 *544:A2 *551:A2 0.00010813
5 *544:A2 *627:A 5.21758e-06
6 *544:A2 *393:22 6.08467e-05
7 *539:A2 *544:A2 4.10943e-05
*RES
1 *539:Y *544:A2 30.8842 
*END

*D_NET *32 0.0406821
*CONN
*I *786:A3 I *D sky130_fd_sc_hd__o311ai_1
*I *904:B1 I *D sky130_fd_sc_hd__a21oi_1
*I *783:B I *D sky130_fd_sc_hd__nor2_1
*I *742:A I *D sky130_fd_sc_hd__nor2_1
*I *532:C1 I *D sky130_fd_sc_hd__a311oi_1
*I *563:B1 I *D sky130_fd_sc_hd__a21oi_1
*I *506:B1 I *D sky130_fd_sc_hd__a21oi_1
*I *612:B1 I *D sky130_fd_sc_hd__a31oi_1
*I *907:A I *D sky130_fd_sc_hd__nor2b_1
*I *889:A I *D sky130_fd_sc_hd__nor2_1
*I *906:A I *D sky130_fd_sc_hd__nor2_1
*I *893:A I *D sky130_fd_sc_hd__nor2_1
*I *897:A I *D sky130_fd_sc_hd__nor2_1
*I *895:A I *D sky130_fd_sc_hd__nor2_1
*I *660:A1 I *D sky130_fd_sc_hd__o22ai_1
*I *726:B2 I *D sky130_fd_sc_hd__o22ai_1
*I *658:A I *D sky130_fd_sc_hd__nor2_1
*I *899:A I *D sky130_fd_sc_hd__nor2_1
*I *901:A I *D sky130_fd_sc_hd__nor2_1
*I *891:A I *D sky130_fd_sc_hd__nor2_1
*I *863:B1 I *D sky130_fd_sc_hd__a21oi_1
*I *809:A I *D sky130_fd_sc_hd__nor2_1
*I *540:X O *D sky130_fd_sc_hd__buf_4
*CAP
1 *786:A3 2.31128e-05
2 *904:B1 0.000448811
3 *783:B 0
4 *742:A 8.75394e-05
5 *532:C1 2.12792e-05
6 *563:B1 0
7 *506:B1 0.000142578
8 *612:B1 0
9 *907:A 0
10 *889:A 0.000442203
11 *906:A 0.000220862
12 *893:A 2.75745e-05
13 *897:A 0.00010792
14 *895:A 1.68076e-05
15 *660:A1 0.000231565
16 *726:B2 0.000455894
17 *658:A 6.42249e-05
18 *899:A 0
19 *901:A 0.000164228
20 *891:A 0.000321348
21 *863:B1 0
22 *809:A 0
23 *540:X 0.000583498
24 *32:305 0.000719557
25 *32:242 0.00059887
26 *32:221 0.000689432
27 *32:210 0.000481315
28 *32:151 0.00182426
29 *32:131 0.00180228
30 *32:111 0.000164228
31 *32:98 0.000611246
32 *32:96 0.000971685
33 *32:94 0.000727146
34 *32:92 0.000675036
35 *32:86 0.00118873
36 *32:82 0.00124763
37 *32:72 0.0007672
38 *32:64 0.000454497
39 *32:54 0.000659804
40 *32:39 0.00111246
41 *32:29 0.00123517
42 *32:27 0.00101954
43 *32:25 0.00133308
44 *32:16 0.00121606
45 *32:10 0.00273182
46 *506:B1 *576:A 0.000139817
47 *506:B1 *923:CLK 0.000110306
48 *660:A1 *660:B1 6.36477e-05
49 *660:A1 *149:14 0.000402574
50 *726:B2 *661:A 1.00901e-05
51 *726:B2 *661:B 2.08133e-05
52 *726:B2 *664:A2 0.000380424
53 *726:B2 *666:C 0.000159038
54 *726:B2 *726:A1 1.00766e-05
55 *726:B2 *726:B1 2.58757e-05
56 *726:B2 *816:A2 2.16355e-05
57 *726:B2 *81:48 2.99506e-05
58 *726:B2 *95:44 0.000100007
59 *726:B2 *95:57 0.000176694
60 *742:A *750:B1 6.11872e-05
61 *742:A *334:12 1.5714e-05
62 *742:A *397:134 0.000161262
63 *786:A3 *786:A2 4.40531e-05
64 *786:A3 *453:243 8.79081e-06
65 *889:A *888:A0 0.00017383
66 *889:A *888:S 7.67734e-06
67 *889:A *889:B 1.88676e-05
68 *889:A *907:B_N 6.46815e-05
69 *891:A *898:A0 3.70541e-05
70 *891:A *899:B 5.22654e-06
71 *891:A *374:14 0
72 *891:A *455:14 7.03852e-05
73 *895:A *890:A0 5.0715e-05
74 *895:A *895:B 0.000118166
75 *897:A *896:A0 0.000160047
76 *897:A *897:B 2.55749e-05
77 *904:B1 exp_out[0] 2.41338e-05
78 *904:B1 *637:A 8.12683e-05
79 *904:B1 *874:A2 0.000418763
80 *904:B1 *903:A_N 0.000454642
81 *904:B1 *453:210 0
82 *906:A *906:B 6.77603e-05
83 *906:A *59:20 9.04282e-05
84 *32:10 exp_out[1] 0
85 *32:10 *913:A 0
86 *32:10 *443:23 6.37199e-05
87 *32:16 *805:A2 0.000532209
88 *32:16 *828:A2 0.000173175
89 *32:16 *830:A1 0.000366622
90 *32:16 *833:C1 0.000108465
91 *32:16 *40:144 0.000370891
92 *32:16 *56:416 3.31736e-05
93 *32:16 *443:23 0.000208767
94 *32:25 *39:30 0
95 *32:27 *785:C1 6.51063e-05
96 *32:27 *39:30 0
97 *32:29 *741:B 7.90654e-06
98 *32:39 *741:B 8.70794e-06
99 *32:39 *860:A1 6.20492e-05
100 *32:39 *864:A2 9.25341e-05
101 *32:39 *59:259 7.15724e-05
102 *32:39 *59:265 7.50722e-05
103 *32:39 *371:26 5.80734e-05
104 *32:39 *385:26 9.2346e-06
105 *32:39 *453:152 0
106 *32:54 *59:259 0.000121019
107 *32:54 *429:25 0
108 *32:54 *429:72 1.50924e-05
109 *32:54 *453:120 0.000138943
110 *32:54 *453:133 7.80882e-05
111 *32:54 *453:135 3.67259e-05
112 *32:64 exp_out[3] 0.000697624
113 *32:64 *502:A 1.0759e-05
114 *32:64 *502:B 6.85241e-05
115 *32:64 *532:A2 0.000125263
116 *32:64 *453:88 0.000167909
117 *32:64 *453:116 0.000779222
118 *32:64 *453:120 7.20028e-05
119 *32:72 exp_out[8] 3.57646e-05
120 *32:72 *502:A 4.76161e-06
121 *32:72 *502:B 0.00021377
122 *32:72 *576:A 6.27782e-05
123 *32:72 *453:84 0.000458191
124 *32:72 *453:88 2.8212e-05
125 *32:82 *561:B1 6.50727e-05
126 *32:82 *561:C1 0.000196638
127 *32:82 *619:A1 0.00031994
128 *32:82 *86:10 7.7321e-05
129 *32:82 *461:10 0.000326308
130 *32:92 *435:16 0.00034494
131 *32:94 *894:A1 8.79729e-05
132 *32:96 *894:A1 9.34396e-06
133 *32:96 *435:22 0
134 *32:98 *898:A0 0.000115572
135 *32:98 *898:S 0
136 *32:98 *899:B 0.000149659
137 *32:98 *354:10 0
138 *32:98 *454:311 0
139 *32:131 *900:S 4.89251e-05
140 *32:131 *149:14 6.13051e-05
141 *32:151 *575:A1 0.000248398
142 *32:151 *582:B 0.000107496
143 *32:151 *597:B1 0.000250405
144 *32:151 *620:B_N 0.00010072
145 *32:151 *634:C1 0.000157686
146 *32:151 *635:B1 6.27782e-05
147 *32:151 *658:B 3.80105e-05
148 *32:151 *660:B1 0
149 *32:151 *664:A2 0.00016233
150 *32:151 *702:A2 2.12561e-05
151 *32:151 *48:67 1.03594e-05
152 *32:151 *57:42 0.000349315
153 *32:151 *110:12 2.24484e-05
154 *32:210 *435:10 8.85525e-05
155 *32:210 *435:16 2.71542e-05
156 *32:221 *893:B 0
157 *32:221 *435:10 1.55462e-05
158 *32:221 *435:69 0
159 *32:242 *888:A0 2.85505e-05
160 *32:242 *888:S 0.000112361
161 *32:305 *750:A3 0
162 *32:305 *824:D1 4.72583e-05
163 *32:305 *874:A2 8.01987e-05
164 *32:305 *874:B2 0
165 *32:305 *57:220 0.000121124
166 *32:305 *237:34 3.94402e-05
167 *32:305 *334:12 0
168 *32:305 *453:227 0
169 *532:B1 *32:54 0.000195438
170 *532:B1 *32:64 6.46815e-05
171 *701:B *726:B2 0.000200794
172 *920:D *32:82 0
173 *923:D *506:B1 4.23858e-05
174 *927:D *891:A 7.71949e-05
175 *930:D *893:A 0.000113968
176 *930:CLK *893:A 6.50727e-05
177 *933:CLK *906:A 0.000176041
178 *20:27 *32:94 3.51113e-05
179 *20:27 *32:96 0.000115504
180 *20:96 *32:92 3.15496e-05
181 *20:96 *32:94 0.000114548
182 *20:109 *32:92 7.00907e-05
183 *26:140 *32:29 1.73346e-05
184 *26:140 *32:39 7.22607e-05
185 *30:228 *32:151 8.29191e-05
186 *30:243 *658:A 0.000118792
187 *30:243 *32:151 5.16447e-05
188 *30:268 *726:B2 2.08702e-05
189 *30:270 *726:B2 0.000222536
190 *30:276 *726:B2 7.53416e-05
*RES
1 *540:X *32:10 28.6938 
2 *32:10 *32:16 44.502 
3 *32:16 *809:A 9.24915 
4 *32:10 *32:25 5.25444 
5 *32:25 *32:27 0.814787 
6 *32:27 *32:29 0.661806 
7 *32:29 *32:39 10.4394 
8 *32:39 *863:B1 13.7491 
9 *32:39 *32:54 15.6689 
10 *32:54 *32:64 16.4934 
11 *32:64 *32:72 12.0715 
12 *32:72 *32:82 20.1464 
13 *32:82 *32:86 16.2764 
14 *32:86 *32:92 13.1476 
15 *32:92 *32:94 9.30653 
16 *32:94 *32:96 10.9675 
17 *32:96 *32:98 9.30653 
18 *32:98 *891:A 22.9514 
19 *32:98 *32:111 4.5 
20 *32:111 *901:A 13.3484 
21 *32:111 *899:A 9.24915 
22 *32:96 *32:131 10.2148 
23 *32:131 *32:151 48.6649 
24 *32:151 *658:A 12.0704 
25 *32:151 *726:B2 33.3056 
26 *32:131 *660:A1 16.2661 
27 *32:94 *895:A 15.0271 
28 *32:92 *897:A 16.7151 
29 *32:86 *32:210 8.82351 
30 *32:210 *893:A 15.0271 
31 *32:210 *32:221 6.81502 
32 *32:221 *906:A 21.3448 
33 *32:221 *32:242 8.85575 
34 *32:242 *889:A 17.4959 
35 *32:242 *907:A 9.24915 
36 *32:82 *612:B1 9.24915 
37 *32:72 *506:B1 18.1049 
38 *32:64 *563:B1 9.24915 
39 *32:54 *532:C1 9.82786 
40 *32:29 *742:A 19.9079 
41 *32:27 *32:305 10.8067 
42 *32:305 *783:B 13.7491 
43 *32:305 *904:B1 28.2159 
44 *32:25 *786:A3 17.9118 
*END

*D_NET *33 0.00805135
*CONN
*I *543:A1 I *D sky130_fd_sc_hd__a21oi_1
*I *666:B I *D sky130_fd_sc_hd__nor3_1
*I *642:B2 I *D sky130_fd_sc_hd__o22ai_1
*I *541:Y O *D sky130_fd_sc_hd__nand2_1
*CAP
1 *543:A1 0
2 *666:B 0
3 *642:B2 0.00045915
4 *541:Y 0
5 *33:50 0.00103745
6 *33:27 0.0014367
7 *33:4 0.000858403
8 *642:B2 *584:A_N 2.53145e-06
9 *642:B2 *587:B1_N 0.000290297
10 *642:B2 *588:A3 6.08467e-05
11 *642:B2 *642:A2 0.000107496
12 *642:B2 *693:B 0.000158357
13 *642:B2 *38:38 6.08467e-05
14 *642:B2 *59:46 2.68666e-06
15 *642:B2 *75:6 0.000107496
16 *642:B2 *75:8 0.000107496
17 *33:27 *541:A 7.27261e-05
18 *33:27 *662:A1_N 0.000165773
19 *33:27 *666:C 2.57986e-05
20 *33:27 *675:B1 6.08467e-05
21 *33:27 *693:B 0.000340742
22 *33:27 *726:A1 5.51483e-06
23 *33:27 *38:38 0.000139947
24 *33:27 *38:64 0.000152282
25 *33:27 *38:70 5.04829e-06
26 *33:27 *56:154 0
27 *33:27 *422:38 0.000295569
28 *33:50 *574:A2 0.000305631
29 *33:50 *607:A 6.08467e-05
30 *33:50 *661:A 0.000380042
31 *33:50 *666:C 0.000144383
32 *33:50 *705:A3 5.12223e-05
33 *33:50 *726:B1 2.94931e-05
34 *33:50 *34:31 0.00011368
35 *33:50 *48:149 0.000529338
36 *33:50 *51:140 4.27952e-05
37 *33:50 *189:14 6.50727e-05
38 *33:50 *431:12 8.8569e-05
39 *642:A1 *642:B2 1.1957e-05
40 *701:B *33:50 3.86732e-05
41 *918:D *33:50 5.69036e-05
42 *30:54 *33:27 0.000178737
*RES
1 *541:Y *33:4 9.24915 
2 *33:4 *642:B2 19.4731 
3 *33:4 *33:27 23.2203 
4 *33:27 *666:B 9.24915 
5 *33:27 *33:50 44.3321 
6 *33:50 *543:A1 9.24915 
*END

*D_NET *34 0.00641361
*CONN
*I *712:B1 I *D sky130_fd_sc_hd__o21ai_0
*I *735:B1 I *D sky130_fd_sc_hd__a21oi_1
*I *850:A1 I *D sky130_fd_sc_hd__o211ai_1
*I *543:A2 I *D sky130_fd_sc_hd__a21oi_1
*I *661:B I *D sky130_fd_sc_hd__xnor2_1
*I *542:Y O *D sky130_fd_sc_hd__nor2_1
*CAP
1 *712:B1 0
2 *735:B1 0.000403424
3 *850:A1 0.000295926
4 *543:A2 2.21516e-05
5 *661:B 0.000252698
6 *542:Y 0
7 *34:55 0.000694115
8 *34:40 0.000667072
9 *34:31 0.000449565
10 *34:6 0.000599655
11 *543:A2 *543:B1 0
12 *661:B *542:A 7.50872e-05
13 *661:B *661:A 2.61223e-05
14 *735:B1 *842:A2 0.000121252
15 *735:B1 *138:47 0.000307037
16 *735:B1 *168:101 0.000139667
17 *735:B1 *212:30 3.88415e-05
18 *735:B1 *385:101 3.8525e-05
19 *735:B1 *393:106 6.2854e-05
20 *850:A1 *543:B1 2.24632e-05
21 *850:A1 *627:A 3.54565e-05
22 *850:A1 *849:A2 5.71024e-05
23 *850:A1 *850:A2 6.46815e-05
24 *850:A1 *870:A 4.89392e-05
25 *850:A1 *310:16 1.88563e-05
26 *850:A1 *445:10 3.88893e-05
27 *34:31 *542:A 6.28168e-05
28 *34:31 *607:A 7.92757e-06
29 *34:31 *725:A3 0.000208382
30 *34:31 *35:20 0.000109421
31 *34:31 *95:76 5.04537e-05
32 *34:31 *431:12 2.52886e-05
33 *34:31 *431:14 6.77595e-05
34 *34:40 *543:B1 8.15345e-05
35 *34:40 *607:A 1.34424e-05
36 *34:40 *736:A2 8.859e-05
37 *34:40 *35:20 0.000110306
38 *34:55 *543:B1 4.47179e-05
39 *34:55 *712:A1 0.000107496
40 *34:55 *712:A2 0.000109421
41 *34:55 *714:A2 0.000123802
42 *34:55 *736:A2 0.000277807
43 *701:B *661:B 0.000164354
44 *701:C *661:B 2.16355e-05
45 *726:B2 *661:B 2.08133e-05
46 *30:255 *661:B 7.50872e-05
47 *30:255 *34:31 4.84944e-05
48 *33:50 *34:31 0.00011368
*RES
1 *542:Y *34:6 13.7491 
2 *34:6 *661:B 20.3985 
3 *34:6 *34:31 14.5716 
4 *34:31 *543:A2 9.82786 
5 *34:31 *34:40 3.49641 
6 *34:40 *850:A1 25.9269 
7 *34:40 *34:55 10.1517 
8 *34:55 *735:B1 28.4832 
9 *34:55 *712:B1 9.24915 
*END

*D_NET *35 0.00365717
*CONN
*I *544:B1 I *D sky130_fd_sc_hd__a21oi_1
*I *543:Y O *D sky130_fd_sc_hd__a21oi_1
*CAP
1 *544:B1 0
2 *543:Y 0.000869423
3 *35:20 0.000869423
4 *35:20 *520:A 0.00013135
5 *35:20 *543:B1 0.000257357
6 *35:20 *607:A 2.77625e-06
7 *35:20 *627:A 1.00004e-05
8 *35:20 *709:A2 0.000295521
9 *35:20 *871:A2 4.86024e-05
10 *35:20 *44:18 0
11 *35:20 *44:50 0
12 *35:20 *57:110 0.000138003
13 *35:20 *422:139 0.00019898
14 *35:20 *422:150 1.38872e-05
15 *35:20 *431:12 0.00020333
16 *35:20 *445:10 0.000150454
17 *539:A2 *35:20 0.000101177
18 *603:A1 *35:20 0.000147162
19 *34:31 *35:20 0.000109421
20 *34:40 *35:20 0.000110306
*RES
1 *543:Y *35:20 47.3892 
2 *35:20 *544:B1 9.24915 
*END

*D_NET *36 0.00161505
*CONN
*I *554:A2 I *D sky130_fd_sc_hd__a221o_1
*I *544:Y O *D sky130_fd_sc_hd__a21oi_1
*CAP
1 *554:A2 0.000300533
2 *544:Y 0.000300533
3 *554:A2 *530:A3 5.05252e-05
4 *554:A2 *550:A1 3.99086e-06
5 *554:A2 *550:A2 3.94536e-05
6 *554:A2 *551:A2 2.58726e-05
7 *554:A2 *554:B2 1.33419e-05
8 *554:A2 *627:A 0.000303583
9 *554:A2 *853:B 5.60291e-06
10 *554:A2 *59:227 3.75221e-05
11 *554:A2 *430:29 0.00034859
12 *554:A2 *431:72 0.000164203
13 *554:A2 *432:8 2.1297e-05
*RES
1 *544:Y *554:A2 37.9799 
*END

*D_NET *37 0.0366591
*CONN
*I *856:A_N I *D sky130_fd_sc_hd__nand2b_1
*I *756:B1 I *D sky130_fd_sc_hd__a31oi_1
*I *793:A1_N I *D sky130_fd_sc_hd__a2bb2oi_1
*I *721:B I *D sky130_fd_sc_hd__nand2b_1
*I *792:A1 I *D sky130_fd_sc_hd__o22ai_1
*I *883:A I *D sky130_fd_sc_hd__nor3_1
*I *882:A1 I *D sky130_fd_sc_hd__a221oi_1
*I *778:A1 I *D sky130_fd_sc_hd__o21ai_0
*I *881:A1 I *D sky130_fd_sc_hd__o21ai_0
*I *746:A1 I *D sky130_fd_sc_hd__o221ai_1
*I *837:A1 I *D sky130_fd_sc_hd__o21ai_0
*I *667:A I *D sky130_fd_sc_hd__nor2_1
*I *632:A I *D sky130_fd_sc_hd__nand2_1
*I *800:B1 I *D sky130_fd_sc_hd__a21oi_1
*I *738:A1 I *D sky130_fd_sc_hd__o211ai_1
*I *732:A1 I *D sky130_fd_sc_hd__a31oi_1
*I *731:A I *D sky130_fd_sc_hd__nor3_1
*I *803:A1 I *D sky130_fd_sc_hd__a211oi_1
*I *759:A1 I *D sky130_fd_sc_hd__a211oi_1
*I *819:A1 I *D sky130_fd_sc_hd__a21oi_1
*I *743:A1 I *D sky130_fd_sc_hd__o21ai_0
*I *839:A1 I *D sky130_fd_sc_hd__o21ai_0
*I *817:B1 I *D sky130_fd_sc_hd__a31oi_1
*I *757:A1 I *D sky130_fd_sc_hd__a21oi_1
*I *670:A1 I *D sky130_fd_sc_hd__a221oi_1
*I *664:B2 I *D sky130_fd_sc_hd__o22ai_1
*I *630:A1 I *D sky130_fd_sc_hd__o21ai_0
*I *541:A I *D sky130_fd_sc_hd__nand2_1
*I *671:A1 I *D sky130_fd_sc_hd__a21oi_1
*I *545:X O *D sky130_fd_sc_hd__buf_4
*CAP
1 *856:A_N 0.000104052
2 *756:B1 3.45883e-05
3 *793:A1_N 0.000178048
4 *721:B 0
5 *792:A1 0.000119911
6 *883:A 0
7 *882:A1 0
8 *778:A1 9.43381e-05
9 *881:A1 3.07493e-05
10 *746:A1 0.000163019
11 *837:A1 1.80499e-05
12 *667:A 7.74893e-05
13 *632:A 0
14 *800:B1 0
15 *738:A1 0.000350492
16 *732:A1 9.29467e-05
17 *731:A 0.000114974
18 *803:A1 0
19 *759:A1 0
20 *819:A1 0.000607552
21 *743:A1 0
22 *839:A1 0
23 *817:B1 0
24 *757:A1 0
25 *670:A1 0
26 *664:B2 0.000273762
27 *630:A1 0.000111061
28 *541:A 0.000153471
29 *671:A1 0.000295322
30 *545:X 0.000231631
31 *37:398 0.000220387
32 *37:392 0.000379781
33 *37:388 0.000598368
34 *37:377 0.00125824
35 *37:360 0.000854092
36 *37:345 0.000421446
37 *37:330 0.000659029
38 *37:289 0.000218609
39 *37:278 0.000236207
40 *37:270 0.00049351
41 *37:227 0.000560414
42 *37:214 0.000274347
43 *37:210 0.000248515
44 *37:179 0.000922024
45 *37:175 0.000328186
46 *37:173 0.0002564
47 *37:160 0.000218423
48 *37:147 0.000527233
49 *37:137 0.000820564
50 *37:126 0.000560215
51 *37:114 0.00116462
52 *37:103 0.000521364
53 *37:64 0.000867594
54 *37:52 0.000806271
55 *37:44 0.000490322
56 *37:22 0.000833828
57 *37:18 0.000660768
58 *541:A *38:38 0.000107496
59 *541:A *80:10 0.000110949
60 *541:A *422:38 0.000114659
61 *630:A1 *630:A2 6.08467e-05
62 *630:A1 *630:B1 0.000110458
63 *630:A1 *675:C1 2.07503e-05
64 *630:A1 *38:76 0.000304138
65 *630:A1 *457:115 2.81262e-05
66 *664:B2 *594:C2 1.21305e-05
67 *664:B2 *662:A1_N 0.000230382
68 *664:B2 *675:A2 4.10737e-05
69 *664:B2 *48:48 9.32704e-05
70 *664:B2 *48:67 0.000106269
71 *664:B2 *59:34 0
72 *664:B2 *148:12 4.34267e-05
73 *667:A *62:115 5.73392e-05
74 *667:A *189:14 6.08467e-05
75 *671:A1 *671:A2 6.27718e-05
76 *671:A1 *673:A1 4.87301e-05
77 *671:A1 *673:B1 9.58642e-06
78 *671:A1 *674:B1 0.000107496
79 *731:A *857:B2 6.36477e-05
80 *731:A *218:20 6.36477e-05
81 *732:A1 *580:A1 6.36477e-05
82 *732:A1 *580:A2 2.53145e-06
83 *732:A1 *737:A2 6.00782e-06
84 *732:A1 *857:B2 5.04829e-06
85 *732:A1 *71:12 0.000227034
86 *738:A1 *580:A1 0.000158451
87 *738:A1 *580:B1 3.63738e-05
88 *738:A1 *729:B 1.66626e-05
89 *738:A1 *735:A1 1.50854e-05
90 *738:A1 *738:A2 3.25906e-05
91 *738:A1 *738:B1 6.36477e-05
92 *738:A1 *873:A2 3.49575e-05
93 *738:A1 *56:397 0.000207883
94 *738:A1 *71:12 9.75243e-05
95 *738:A1 *226:24 6.36477e-05
96 *738:A1 *258:8 8.98464e-05
97 *738:A1 *263:54 1.51258e-05
98 *738:A1 *393:106 1.56419e-05
99 *738:A1 *397:91 0.000129885
100 *746:A1 *849:A2 7.16734e-05
101 *746:A1 *233:43 4.73373e-05
102 *756:B1 *68:8 4.76248e-05
103 *756:B1 *263:48 1.35239e-05
104 *778:A1 *696:A 0.00015268
105 *778:A1 *168:31 0.00015268
106 *792:A1 *792:B2 0.000226137
107 *792:A1 *793:B2 2.58757e-05
108 *792:A1 *168:14 5.68462e-05
109 *792:A1 *209:21 9.01299e-06
110 *792:A1 *210:14 1.45014e-05
111 *793:A1_N *771:B 3.54295e-05
112 *793:A1_N *793:A2_N 0.000122844
113 *793:A1_N *44:179 6.27782e-05
114 *793:A1_N *68:19 4.87831e-05
115 *793:A1_N *263:48 1.86178e-05
116 *793:A1_N *277:12 1.09598e-05
117 *819:A1 *710:A 0.000126199
118 *819:A1 *773:A1 4.12977e-05
119 *819:A1 *782:A2 4.60155e-05
120 *819:A1 *59:344 2.18196e-05
121 *819:A1 *210:26 4.51176e-05
122 *819:A1 *422:90 0.000884648
123 *819:A1 *455:241 3.46935e-05
124 *837:A1 *62:115 6.50727e-05
125 *856:A_N *218:20 0.000400325
126 *856:A_N *233:37 0.000456119
127 *881:A1 *881:A2 1.7773e-05
128 *881:A1 *40:249 5.20674e-05
129 *37:18 *683:A2 6.27782e-05
130 *37:18 *693:A 8.97492e-06
131 *37:18 *693:D 7.26748e-05
132 *37:18 *56:177 0.000139817
133 *37:18 *62:73 0.000200794
134 *37:18 *419:28 0.000194573
135 *37:18 *454:86 6.08467e-05
136 *37:18 *454:88 2.86829e-05
137 *37:18 *454:276 4.54703e-05
138 *37:22 *131:20 0.000396254
139 *37:44 *693:A 1.0017e-05
140 *37:44 *419:28 6.93171e-05
141 *37:52 *670:A2 0.000113968
142 *37:52 *670:B1 0.000263189
143 *37:52 *674:A2 1.65872e-05
144 *37:52 *693:A 1.37566e-05
145 *37:52 *694:B 1.89643e-05
146 *37:52 *694:C 0.000146645
147 *37:52 *726:A2 3.59283e-05
148 *37:52 *48:93 0.000126336
149 *37:52 *48:108 9.97706e-05
150 *37:52 *56:164 0
151 *37:52 *95:27 0
152 *37:52 *419:28 1.07549e-05
153 *37:52 *419:43 5.06165e-06
154 *37:64 *630:B1 1.09441e-05
155 *37:64 *670:B2 0.000172221
156 *37:64 *674:A1 1.55025e-05
157 *37:64 *674:A2 2.81262e-05
158 *37:64 *674:A3 0.000154145
159 *37:64 *674:B1 4.78069e-06
160 *37:64 *675:D1 7.37686e-05
161 *37:64 *48:48 0.000132614
162 *37:64 *56:154 8.5492e-05
163 *37:103 *757:A2 5.90501e-05
164 *37:114 *685:A2 6.27782e-05
165 *37:114 *687:A1 6.27782e-05
166 *37:114 *687:B1 4.76794e-05
167 *37:114 *693:C 3.87064e-05
168 *37:114 *757:A2 2.58616e-05
169 *37:114 *758:A2 2.19265e-05
170 *37:126 *687:A2 0.000231627
171 *37:126 *817:A1 1.03594e-05
172 *37:126 *817:A2 0.000158002
173 *37:126 *817:A3 1.02267e-05
174 *37:126 *49:36 0.000134961
175 *37:126 *83:59 6.48766e-05
176 *37:126 *83:91 0.000138244
177 *37:126 *189:14 3.43343e-05
178 *37:126 *431:24 3.64303e-05
179 *37:137 *744:B 0.000163146
180 *37:137 *749:C1 2.08128e-05
181 *37:137 *814:B 7.09666e-06
182 *37:137 *817:A2 6.27718e-05
183 *37:137 *849:A2 3.27606e-06
184 *37:137 *38:174 0
185 *37:137 *62:115 0
186 *37:137 *83:91 3.64497e-06
187 *37:137 *431:24 1.38536e-05
188 *37:147 *744:B 4.49203e-06
189 *37:147 *749:C1 0.000138599
190 *37:147 *798:A2 1.42755e-05
191 *37:147 *51:70 0.000220203
192 *37:147 *56:296 0.000182806
193 *37:147 *56:314 0.000607339
194 *37:147 *70:48 6.03237e-05
195 *37:147 *138:47 1.5714e-05
196 *37:147 *168:85 1.91246e-05
197 *37:160 *803:A2 1.65872e-05
198 *37:160 *841:B1 0.000104529
199 *37:160 *56:314 0.000124083
200 *37:160 *56:316 2.04534e-05
201 *37:160 *56:342 1.15389e-05
202 *37:173 *743:B1 0.000258964
203 *37:173 *803:A2 0.000114417
204 *37:173 *56:342 0.000121263
205 *37:175 *803:A2 3.5063e-05
206 *37:179 *731:C 0.000136347
207 *37:179 *735:A2 2.37723e-05
208 *37:179 *773:A1 5.1584e-05
209 *37:179 *782:A2 0.000142023
210 *37:179 *785:A2 1.9837e-05
211 *37:179 *803:C1 6.96979e-05
212 *37:179 *51:70 1.4581e-05
213 *37:179 *59:344 1.43526e-05
214 *37:179 *204:52 0
215 *37:179 *422:80 2.35832e-05
216 *37:210 *743:B1 2.5292e-05
217 *37:210 *800:A1 6.3657e-05
218 *37:210 *803:C1 0.000111802
219 *37:210 *290:22 6.08467e-05
220 *37:214 *732:B1 1.72919e-05
221 *37:214 *800:A1 5.40857e-05
222 *37:214 *51:70 7.72394e-06
223 *37:214 *258:8 0.000188604
224 *37:227 *732:B1 4.73035e-05
225 *37:227 *258:8 0.00013689
226 *37:270 *749:A1 5.89512e-05
227 *37:270 *749:A2 6.22114e-05
228 *37:270 *749:C1 3.39131e-05
229 *37:270 *849:A2 0.000124081
230 *37:270 *62:115 0
231 *37:270 *233:43 6.1096e-05
232 *37:278 *746:C1 1.91391e-05
233 *37:278 *749:B1 1.91391e-05
234 *37:278 *797:A2 8.65132e-05
235 *37:278 *816:A3 9.18353e-05
236 *37:278 *849:A2 3.54949e-06
237 *37:278 *49:64 6.31996e-05
238 *37:278 *233:43 0.000165262
239 *37:289 *746:C1 9.12416e-06
240 *37:289 *849:A2 3.93978e-05
241 *37:289 *49:64 2.13165e-05
242 *37:289 *189:14 6.28334e-05
243 *37:330 *700:A2 0
244 *37:330 *758:A2 1.04731e-05
245 *37:330 *881:A2 6.85115e-05
246 *37:330 *40:249 9.92215e-05
247 *37:330 *49:10 3.02249e-05
248 *37:330 *107:18 0.000154145
249 *37:330 *265:12 0.000112845
250 *37:345 *696:A 0.000154145
251 *37:345 *881:B1 0.000161262
252 *37:345 *882:B1 5.29752e-05
253 *37:345 *885:B1 7.62098e-06
254 *37:360 *696:A 0
255 *37:360 *882:B1 7.01935e-06
256 *37:360 *885:B1 4.76161e-06
257 *37:377 *878:B1 0.000113011
258 *37:377 *883:C 8.91956e-05
259 *37:377 *884:C_N 0.000260325
260 *37:377 *885:A2 1.65872e-05
261 *37:377 *885:B1 4.98215e-05
262 *37:377 *885:D1 8.61638e-05
263 *37:377 *397:16 9.37126e-05
264 *37:388 *755:B1 7.92757e-06
265 *37:388 *756:A2 0.000164829
266 *37:388 *756:A3 6.08467e-05
267 *37:388 *883:B 2.9856e-05
268 *37:388 *883:C 2.57847e-05
269 *37:388 *397:16 2.20277e-05
270 *37:392 *68:19 2.83043e-05
271 *37:392 *263:48 9.20447e-05
272 *37:398 *721:A_N 4.95892e-05
273 *37:398 *791:A2 3.31745e-05
274 *37:398 *884:C_N 0.000352054
275 *37:398 *38:404 6.27782e-05
276 *37:398 *40:379 7.66391e-06
277 *37:398 *168:14 9.81288e-06
278 *557:A *37:114 0.000112367
279 *604:A_N *37:22 3.95516e-05
280 *673:C1 *671:A1 7.92757e-06
281 *676:B *37:126 0
282 *677:B *37:114 7.23277e-06
283 *682:B *37:18 0.000107496
284 *818:A *819:A1 4.51176e-05
285 *20:70 *664:B2 6.08467e-05
286 *28:31 *37:22 2.77625e-06
287 *28:54 *37:18 2.77625e-06
288 *30:54 *541:A 0.000114659
289 *30:337 *37:398 2.58757e-05
290 *30:349 *792:A1 0.000123392
291 *30:349 *793:A1_N 8.54947e-05
292 *33:27 *541:A 7.27261e-05
*RES
1 *545:X *37:18 31.1847 
2 *37:18 *37:22 10.7694 
3 *37:22 *671:A1 13.8548 
4 *37:22 *541:A 23.9928 
5 *37:18 *37:44 1.41674 
6 *37:44 *37:52 15.4049 
7 *37:52 *37:64 23.1547 
8 *37:64 *630:A1 17.9784 
9 *37:64 *664:B2 25.1535 
10 *37:52 *670:A1 9.24915 
11 *37:44 *37:103 6.3326 
12 *37:103 *757:A1 9.24915 
13 *37:103 *37:114 7.57154 
14 *37:114 *37:126 22.1271 
15 *37:126 *817:B1 9.24915 
16 *37:126 *37:137 8.92403 
17 *37:137 *37:147 13.0429 
18 *37:147 *839:A1 9.24915 
19 *37:147 *37:160 3.71343 
20 *37:160 *743:A1 9.24915 
21 *37:160 *37:173 5.93185 
22 *37:173 *37:175 0.578717 
23 *37:175 *37:179 13.3913 
24 *37:179 *819:A1 23.7306 
25 *37:179 *759:A1 13.7491 
26 *37:175 *803:A1 9.24915 
27 *37:173 *37:210 2.94181 
28 *37:210 *37:214 8.40826 
29 *37:214 *731:A 14.4725 
30 *37:214 *37:227 7.57775 
31 *37:227 *732:A1 12.7938 
32 *37:227 *738:A1 30.0781 
33 *37:210 *800:B1 9.24915 
34 *37:137 *37:270 6.0578 
35 *37:270 *37:278 8.30253 
36 *37:278 *632:A 13.7491 
37 *37:278 *37:289 7.993 
38 *37:289 *667:A 11.6605 
39 *37:289 *837:A1 9.97254 
40 *37:270 *746:A1 17.9872 
41 *37:114 *37:330 13.3603 
42 *37:330 *881:A1 14.7506 
43 *37:330 *37:345 11.3481 
44 *37:345 *778:A1 21.3269 
45 *37:345 *37:360 1.71204 
46 *37:360 *882:A1 9.24915 
47 *37:360 *37:377 23.395 
48 *37:377 *883:A 9.24915 
49 *37:377 *37:388 11.9028 
50 *37:388 *37:392 2.56479 
51 *37:392 *37:398 9.13576 
52 *37:398 *792:A1 23.0556 
53 *37:398 *721:B 9.24915 
54 *37:392 *793:A1_N 19.49 
55 *37:388 *756:B1 14.7506 
56 *731:A *856:A_N 24.2372 
*END

*D_NET *38 0.0387728
*CONN
*I *721:A_N I *D sky130_fd_sc_hd__nand2b_1
*I *720:A I *D sky130_fd_sc_hd__nand2_1
*I *754:B1 I *D sky130_fd_sc_hd__a21o_1
*I *670:C1 I *D sky130_fd_sc_hd__a221oi_1
*I *697:A I *D sky130_fd_sc_hd__nor2_1
*I *829:A1 I *D sky130_fd_sc_hd__o21ai_0
*I *745:B_N I *D sky130_fd_sc_hd__nor2b_1
*I *793:B2 I *D sky130_fd_sc_hd__a2bb2oi_1
*I *730:B I *D sky130_fd_sc_hd__and2b_1
*I *872:B2 I *D sky130_fd_sc_hd__o221ai_1
*I *578:A I *D sky130_fd_sc_hd__nor2_1
*I *856:B I *D sky130_fd_sc_hd__nand2b_1
*I *712:A1 I *D sky130_fd_sc_hd__o21ai_0
*I *729:A I *D sky130_fd_sc_hd__or2_1
*I *838:A1 I *D sky130_fd_sc_hd__o21ai_0
*I *882:B2 I *D sky130_fd_sc_hd__a221oi_1
*I *878:A1 I *D sky130_fd_sc_hd__o21ai_1
*I *815:A1 I *D sky130_fd_sc_hd__a21oi_1
*I *668:A1 I *D sky130_fd_sc_hd__a21boi_0
*I *675:A1 I *D sky130_fd_sc_hd__a2111oi_1
*I *630:A2 I *D sky130_fd_sc_hd__o21ai_0
*I *633:A I *D sky130_fd_sc_hd__and2_1
*I *511:B I *D sky130_fd_sc_hd__and2_0
*I *593:A1 I *D sky130_fd_sc_hd__o21ai_0
*I *867:A1 I *D sky130_fd_sc_hd__o221ai_1
*I *541:B I *D sky130_fd_sc_hd__nand2_1
*I *587:B1_N I *D sky130_fd_sc_hd__o21bai_1
*I *673:A1 I *D sky130_fd_sc_hd__o211ai_1
*I *644:A1 I *D sky130_fd_sc_hd__o21ai_0
*I *546:X O *D sky130_fd_sc_hd__buf_4
*CAP
1 *721:A_N 1.63951e-05
2 *720:A 0
3 *754:B1 0.000139539
4 *670:C1 0
5 *697:A 0
6 *829:A1 0
7 *745:B_N 7.05304e-05
8 *793:B2 0.000841003
9 *730:B 0.000208561
10 *872:B2 2.29696e-05
11 *578:A 9.95854e-06
12 *856:B 4.02397e-06
13 *712:A1 0.000791148
14 *729:A 0.00011144
15 *838:A1 0
16 *882:B2 0
17 *878:A1 0.000226934
18 *815:A1 0
19 *668:A1 0.00016778
20 *675:A1 0
21 *630:A2 5.66155e-05
22 *633:A 0.000698466
23 *511:B 0
24 *593:A1 0
25 *867:A1 3.39485e-05
26 *541:B 2.21553e-05
27 *587:B1_N 9.36819e-05
28 *673:A1 2.38695e-05
29 *644:A1 0.000445607
30 *546:X 0
31 *38:404 2.93737e-05
32 *38:389 0.00034885
33 *38:335 0.00110181
34 *38:327 0.000537264
35 *38:303 0.000337751
36 *38:297 0.000398101
37 *38:288 0.00027044
38 *38:269 0.000838364
39 *38:242 0.00152901
40 *38:227 0.000348685
41 *38:219 0.000655584
42 *38:182 0.00069781
43 *38:180 0.000524295
44 *38:174 0.00127105
45 *38:159 0.00112252
46 *38:146 0.00105408
47 *38:96 0.000130813
48 *38:88 0.000260849
49 *38:80 0.000938148
50 *38:76 0.000315913
51 *38:70 0.000251372
52 *38:64 0.000757196
53 *38:60 0.000496213
54 *38:38 0.000176611
55 *38:34 0.00053277
56 *38:23 0.000588716
57 *38:4 0.00088554
58 *578:A *580:A1 6.92705e-05
59 *578:A *455:298 2.65667e-05
60 *587:B1_N *59:46 4.36673e-05
61 *630:A2 *590:A 3.46096e-05
62 *630:A2 *457:115 0.000107496
63 *633:A *596:B1 0.000139636
64 *633:A *616:A1 1.31711e-05
65 *633:A *631:B1 0.000112509
66 *633:A *634:A1 0.000343543
67 *633:A *79:10 2.33675e-05
68 *633:A *123:6 2.57847e-05
69 *633:A *417:23 0.000130521
70 *633:A *417:36 0.000237793
71 *644:A1 *546:A 6.27782e-05
72 *644:A1 *659:A1 4.87301e-05
73 *644:A1 *659:B1 2.59318e-05
74 *644:A1 *62:12 0.000107496
75 *644:A1 *149:8 7.64323e-05
76 *644:A1 *149:14 0.000122992
77 *644:A1 *455:40 0.000154145
78 *668:A1 *726:B1 0.000367764
79 *668:A1 *95:44 3.20407e-05
80 *668:A1 *95:57 0.000349291
81 *673:A1 *673:B1 4.87301e-05
82 *712:A1 *583:A1 0.000400335
83 *712:A1 *736:A2 0.000107496
84 *712:A1 *858:A1 0.000640132
85 *712:A1 *858:A2 7.1397e-05
86 *712:A1 *51:70 4.08597e-05
87 *712:A1 *62:115 0.000125695
88 *712:A1 *70:99 6.26025e-05
89 *712:A1 *107:33 5.04829e-06
90 *712:A1 *107:50 8.54958e-05
91 *712:A1 *138:32 4.73161e-06
92 *712:A1 *138:47 3.81416e-06
93 *712:A1 *168:85 9.84452e-05
94 *712:A1 *385:101 0.000158359
95 *712:A1 *430:57 4.06342e-05
96 *721:A_N *168:14 5.04829e-06
97 *721:A_N *209:21 7.01935e-06
98 *729:A *731:C 8.67924e-06
99 *729:A *840:C 0.000119983
100 *730:B *730:A_N 0.000111708
101 *730:B *735:A1 1.58551e-05
102 *730:B *872:A1 9.61271e-06
103 *730:B *872:C1 0
104 *730:B *873:B1 0
105 *730:B *56:397 0.000224275
106 *730:B *393:55 1.1718e-05
107 *745:B_N *796:A 2.57986e-05
108 *754:B1 *754:A1 2.65831e-05
109 *754:B1 *756:A1 6.92705e-05
110 *754:B1 *792:B2 0
111 *754:B1 *40:379 9.12416e-06
112 *754:B1 *40:381 0.000148227
113 *754:B1 *168:14 4.69495e-06
114 *793:B2 *710:A 2.82171e-06
115 *793:B2 *722:A 7.13655e-06
116 *793:B2 *771:B 6.08467e-05
117 *793:B2 *792:B2 5.51483e-06
118 *793:B2 *820:A2 5.53934e-05
119 *793:B2 *199:12 6.90394e-06
120 *793:B2 *210:14 8.22431e-05
121 *793:B2 *210:26 0.000109726
122 *856:B *218:20 1.56314e-05
123 *856:B *233:37 5.22859e-06
124 *867:A1 *867:A2 6.08467e-05
125 *867:A1 *83:14 1.00846e-05
126 *867:A1 *83:38 2.41274e-06
127 *872:B2 *735:A1 2.16355e-05
128 *872:B2 *56:397 1.65872e-05
129 *878:A1 *855:A 0.000171682
130 *878:A1 *882:C1 9.12416e-06
131 *878:A1 *884:B 5.13151e-05
132 *878:A1 *40:200 0
133 *878:A1 *168:31 4.20184e-06
134 *878:A1 *454:212 3.86919e-05
135 *878:A1 *455:179 0.000450092
136 *878:A1 *455:220 4.0752e-05
137 *38:23 *659:B1 0.000102875
138 *38:23 *689:A1 0.000162739
139 *38:23 *692:A2_N 6.08467e-05
140 *38:23 *62:12 0.000332467
141 *38:23 *422:38 9.38853e-06
142 *38:23 *457:119 3.12211e-05
143 *38:23 *457:121 3.60933e-06
144 *38:34 *659:B1 4.79612e-05
145 *38:34 *674:B1 0.000155327
146 *38:34 *457:119 7.16799e-06
147 *38:60 *659:B1 2.57465e-06
148 *38:60 *670:B1 9.51132e-06
149 *38:60 *674:A2 1.99131e-05
150 *38:60 *674:B1 0.000455437
151 *38:60 *48:48 0.000281375
152 *38:64 *662:A1_N 1.47773e-05
153 *38:64 *670:B2 5.13902e-05
154 *38:64 *56:154 0
155 *38:70 *675:B1 1.34424e-05
156 *38:70 *726:A1 0.000109427
157 *38:76 *635:A1 0.000200794
158 *38:76 *675:B1 1.03403e-05
159 *38:76 *675:C1 1.25784e-05
160 *38:76 *726:A1 0.000110287
161 *38:80 *590:A 7.42891e-05
162 *38:80 *590:B_N 6.08467e-05
163 *38:80 *635:A1 0.000247443
164 *38:80 *457:115 5.51483e-06
165 *38:88 *594:A1 1.41976e-05
166 *38:88 *594:C1 6.50727e-05
167 *38:88 *594:C2 0
168 *38:88 *631:B1 0.000197812
169 *38:88 *656:A 2.15348e-05
170 *38:88 *867:A2 1.15389e-05
171 *38:88 *417:6 1.41689e-05
172 *38:88 *417:23 0.000159338
173 *38:88 *454:49 2.51714e-05
174 *38:96 *867:A2 0.000253403
175 *38:96 *56:86 1.19971e-05
176 *38:96 *146:20 0.000118485
177 *38:96 *454:34 5.04829e-06
178 *38:96 *454:49 5.12499e-05
179 *38:146 *662:A1_N 8.17829e-06
180 *38:146 *675:A2 6.74426e-05
181 *38:146 *56:141 9.47451e-05
182 *38:146 *56:152 6.53502e-05
183 *38:159 *815:A2 9.95234e-05
184 *38:159 *815:B1 0.000107496
185 *38:174 *744:B 7.92757e-06
186 *38:174 *798:A1 2.41274e-06
187 *38:174 *814:A 9.43222e-06
188 *38:174 *815:B1 0.000297054
189 *38:174 *62:94 9.19632e-06
190 *38:174 *62:115 6.93171e-05
191 *38:174 *431:24 1.4091e-06
192 *38:180 *838:A2 3.12828e-05
193 *38:180 *841:A2_N 8.6297e-06
194 *38:180 *107:18 1.72594e-05
195 *38:182 *696:A 0.000333185
196 *38:182 *780:A 0.000104028
197 *38:182 *841:A2_N 1.21831e-05
198 *38:182 *882:C1 0.000161827
199 *38:182 *48:119 0.000372946
200 *38:182 *62:94 0.000240262
201 *38:182 *107:18 0.000109506
202 *38:182 *168:31 4.8322e-06
203 *38:182 *168:58 2.19609e-05
204 *38:182 *454:212 2.88687e-05
205 *38:219 *801:A2 4.31603e-06
206 *38:219 *838:B1 2.53145e-06
207 *38:219 *168:58 0.000170403
208 *38:219 *186:32 2.91178e-05
209 *38:219 *431:24 0.000276562
210 *38:227 *735:A2 1.13142e-05
211 *38:227 *744:B 0.000120725
212 *38:227 *56:342 0.000139817
213 *38:227 *204:52 0.00011815
214 *38:227 *204:69 0.000187287
215 *38:242 *56:342 3.61045e-05
216 *38:242 *204:69 2.91483e-05
217 *38:269 *711:B 3.98659e-05
218 *38:269 *821:A2 0
219 *38:269 *858:B1 0.000492368
220 *38:269 *70:99 0.000111599
221 *38:288 *578:B 5.13043e-05
222 *38:288 *580:A1 0
223 *38:288 *51:106 0.000136483
224 *38:288 *68:36 3.5534e-06
225 *38:297 *580:A1 1.61631e-05
226 *38:297 *455:298 3.31745e-05
227 *38:303 *59:323 5.32981e-05
228 *38:303 *397:107 7.14746e-05
229 *38:303 *429:98 0.000209824
230 *38:327 *56:403 6.98337e-06
231 *38:335 *796:A 0.000529521
232 *38:335 *819:B1 0
233 *38:335 *830:A2 0
234 *38:335 *56:403 9.94284e-06
235 *38:335 *59:323 0.000143215
236 *38:335 *210:26 0
237 *38:335 *233:37 0.000132321
238 *38:335 *453:253 0.000132307
239 *38:389 *771:B 8.65578e-05
240 *38:389 *793:B1 2.45965e-05
241 *38:389 *40:379 4.11872e-05
242 *38:389 *44:216 0
243 *38:389 *68:19 5.62944e-05
244 *38:389 *168:14 1.3091e-05
245 *38:389 *209:21 0.000137204
246 *38:404 *791:A2 1.41976e-05
247 *38:404 *209:21 2.08274e-05
248 *541:A *38:38 0.000107496
249 *571:B *38:23 3.82228e-05
250 *587:A1 *587:B1_N 6.08467e-05
251 *630:A1 *630:A2 6.08467e-05
252 *630:A1 *38:76 0.000304138
253 *642:B2 *587:B1_N 0.000290297
254 *642:B2 *38:38 6.08467e-05
255 *666:A *38:64 5.47232e-06
256 *666:A *38:146 4.23907e-06
257 *671:A1 *673:A1 4.87301e-05
258 *792:A1 *793:B2 2.58757e-05
259 *792:B1 *793:B2 0.000109421
260 *792:B1 *38:389 1.50924e-05
261 *818:A *793:B2 2.59402e-05
262 *916:D *38:335 0.000148525
263 *918:D *38:146 0.000208319
264 *20:70 *38:146 3.99086e-06
265 *26:24 *38:227 2.68327e-05
266 *26:55 *38:146 2.8182e-06
267 *26:55 *38:159 1.4091e-06
268 *30:41 *867:A1 0.000107496
269 *30:169 *38:23 5.12085e-05
270 *30:220 *633:A 3.07133e-05
271 *30:228 *633:A 3.57216e-05
272 *33:27 *38:38 0.000139947
273 *33:27 *38:64 0.000152282
274 *33:27 *38:70 5.04829e-06
275 *34:55 *712:A1 0.000107496
276 *37:137 *38:174 0
277 *37:398 *721:A_N 4.95892e-05
278 *37:398 *38:404 6.27782e-05
*RES
1 *546:X *38:4 9.24915 
2 *38:4 *644:A1 30.6452 
3 *38:4 *38:23 16.2021 
4 *38:23 *673:A1 15.0271 
5 *38:23 *38:34 3.493 
6 *38:34 *38:38 6.88721 
7 *38:38 *587:B1_N 12.7456 
8 *38:38 *541:B 9.82786 
9 *38:34 *38:60 13.9997 
10 *38:60 *38:64 8.40826 
11 *38:64 *38:70 6.5108 
12 *38:70 *38:76 6.46234 
13 *38:76 *38:80 7.44181 
14 *38:80 *38:88 10.265 
15 *38:88 *38:96 13.3558 
16 *38:96 *867:A1 10.5271 
17 *38:96 *593:A1 9.24915 
18 *38:88 *511:B 9.24915 
19 *38:80 *633:A 29.3467 
20 *38:76 *630:A2 11.5158 
21 *38:70 *675:A1 9.24915 
22 *38:64 *38:146 13.5713 
23 *38:146 *668:A1 25.4794 
24 *38:146 *38:159 5.16022 
25 *38:159 *815:A1 9.24915 
26 *38:159 *38:174 20.7372 
27 *38:174 *38:180 6.08021 
28 *38:180 *38:182 16.7811 
29 *38:182 *878:A1 22.874 
30 *38:182 *882:B2 13.7491 
31 *38:180 *838:A1 13.7491 
32 *38:174 *38:219 9.52471 
33 *38:219 *38:227 11.8036 
34 *38:227 *729:A 16.7151 
35 *38:227 *38:242 4.16265 
36 *38:242 *712:A1 42.3485 
37 *38:242 *38:269 4.94847 
38 *38:269 *856:B 13.924 
39 *38:269 *38:288 7.74122 
40 *38:288 *578:A 9.97254 
41 *38:288 *38:297 2.94181 
42 *38:297 *38:303 12.9083 
43 *38:303 *872:B2 9.97254 
44 *38:303 *730:B 16.1696 
45 *38:297 *38:327 3.49641 
46 *38:327 *38:335 18.8459 
47 *38:335 *793:B2 28.3352 
48 *38:335 *745:B_N 15.5817 
49 *38:327 *829:A1 9.24915 
50 *38:219 *697:A 9.24915 
51 *38:60 *670:C1 9.24915 
52 *793:B2 *38:389 19.3762 
53 *38:389 *754:B1 17.5503 
54 *38:389 *38:404 5.2234 
55 *38:404 *720:A 9.24915 
56 *38:404 *721:A_N 9.97254 
*END

*D_NET *39 0.0125229
*CONN
*I *828:A2 I *D sky130_fd_sc_hd__a21oi_1
*I *805:A2 I *D sky130_fd_sc_hd__o32ai_1
*I *850:A2 I *D sky130_fd_sc_hd__o211ai_1
*I *550:A2 I *D sky130_fd_sc_hd__a21oi_1
*I *547:X O *D sky130_fd_sc_hd__and2_1
*CAP
1 *828:A2 5.74434e-05
2 *805:A2 0.000445829
3 *850:A2 0.000564245
4 *550:A2 0.00012103
5 *547:X 0
6 *39:68 0.000640854
7 *39:32 0.000902777
8 *39:30 0.00205179
9 *39:4 0.00197186
10 *550:A2 *430:29 0.000173841
11 *805:A2 *805:A1 6.8305e-06
12 *805:A2 *833:C1 0.000532209
13 *828:A2 *833:C1 0.000111135
14 *828:A2 *443:23 1.94615e-05
15 *850:A2 *525:A 8.08437e-05
16 *850:A2 *627:A 0
17 *850:A2 *849:A2 0.00034542
18 *850:A2 *854:A2 0.000161997
19 *850:A2 *870:A 1.00766e-05
20 *850:A2 *310:16 0.000167198
21 *850:A2 *431:72 8.02893e-06
22 *39:30 *760:B 7.42464e-06
23 *39:30 *836:B2 3.58954e-05
24 *39:30 *861:B2 0.000109427
25 *39:30 *44:70 0.000114634
26 *39:30 *44:83 0.000153676
27 *39:30 *44:85 7.09666e-06
28 *39:30 *56:584 0
29 *39:30 *70:126 0.000153427
30 *39:30 *101:34 6.8723e-06
31 *39:30 *204:88 0.00011926
32 *39:30 *204:115 4.75721e-06
33 *39:30 *218:84 1.90739e-05
34 *39:30 *237:34 0.000136466
35 *39:30 *249:34 2.66294e-05
36 *39:30 *334:12 1.18245e-05
37 *39:30 *357:18 7.444e-06
38 *39:30 *385:80 0.000162189
39 *39:30 *393:47 2.86829e-05
40 *39:30 *430:47 0.000307478
41 *39:30 *455:424 0.000602201
42 *39:32 *853:C 0.000107496
43 *39:32 *56:624 0.000160438
44 *39:32 *393:47 6.08467e-05
45 *39:32 *430:29 0.00025175
46 *39:68 *40:144 0.000356405
47 *523:A *550:A2 3.1202e-05
48 *554:A2 *550:A2 3.94536e-05
49 *850:A1 *850:A2 6.46815e-05
50 *853:A *39:30 9.82838e-06
51 *26:140 *39:30 0.000168126
52 *27:15 *850:A2 5.39635e-06
53 *27:43 *850:A2 0.000174603
54 *32:16 *805:A2 0.000532209
55 *32:16 *828:A2 0.000173175
56 *32:25 *39:30 0
57 *32:27 *39:30 0
*RES
1 *547:X *39:4 9.24915 
2 *39:4 *39:30 43.1994 
3 *39:30 *39:32 6.82404 
4 *39:32 *550:A2 13.5895 
5 *39:32 *850:A2 34.3052 
6 *39:4 *39:68 8.55102 
7 *39:68 *805:A2 27.1067 
8 *39:68 *828:A2 16.8269 
*END

*D_NET *40 0.0683672
*CONN
*I *631:B1 I *D sky130_fd_sc_hd__a21oi_1
*I *584:A_N I *D sky130_fd_sc_hd__nand2b_1
*I *657:A1 I *D sky130_fd_sc_hd__o211ai_1
*I *586:B I *D sky130_fd_sc_hd__nor2_1
*I *592:B I *D sky130_fd_sc_hd__nand2b_1
*I *556:A I *D sky130_fd_sc_hd__inv_1
*I *539:A1 I *D sky130_fd_sc_hd__o21ai_0
*I *486:B I *D sky130_fd_sc_hd__nor2_1
*I *598:B I *D sky130_fd_sc_hd__or2_0
*I *761:A I *D sky130_fd_sc_hd__nor2b_1
*I *717:B_N I *D sky130_fd_sc_hd__nor2b_1
*I *768:A I *D sky130_fd_sc_hd__nand2_1
*I *845:A1 I *D sky130_fd_sc_hd__o21ai_0
*I *737:A1 I *D sky130_fd_sc_hd__a21oi_1
*I *842:B2 I *D sky130_fd_sc_hd__a22o_1
*I *797:B1 I *D sky130_fd_sc_hd__o21ai_0
*I *542:A I *D sky130_fd_sc_hd__nor2_1
*I *816:A1 I *D sky130_fd_sc_hd__a31oi_1
*I *715:A_N I *D sky130_fd_sc_hd__nand2b_1
*I *812:A1 I *D sky130_fd_sc_hd__a21oi_1
*I *720:B I *D sky130_fd_sc_hd__nand2_1
*I *606:A I *D sky130_fd_sc_hd__nand2_1
*I *581:B I *D sky130_fd_sc_hd__nand2b_2
*I *577:A_N I *D sky130_fd_sc_hd__nand2b_1
*I *636:A I *D sky130_fd_sc_hd__or2_0
*I *775:B_N I *D sky130_fd_sc_hd__nor2b_2
*I *751:A I *D sky130_fd_sc_hd__nor2_1
*I *773:A1 I *D sky130_fd_sc_hd__o221ai_1
*I *753:A1 I *D sky130_fd_sc_hd__o22ai_1
*I *684:A1 I *D sky130_fd_sc_hd__a211oi_1
*I *692:B2 I *D sky130_fd_sc_hd__o2bb2ai_1
*I *688:A I *D sky130_fd_sc_hd__nor2b_1
*I *640:A1 I *D sky130_fd_sc_hd__o22ai_1
*I *617:A I *D sky130_fd_sc_hd__and2_0
*I *680:B_N I *D sky130_fd_sc_hd__nor2b_1
*I *774:A2 I *D sky130_fd_sc_hd__a21bo_1
*I *787:A I *D sky130_fd_sc_hd__nor2b_1
*I *829:B1 I *D sky130_fd_sc_hd__o21ai_0
*I *804:B I *D sky130_fd_sc_hd__nand2_1
*I *547:B I *D sky130_fd_sc_hd__and2_1
*I *707:B I *D sky130_fd_sc_hd__nand2b_1
*I *740:A1 I *D sky130_fd_sc_hd__a21oi_1
*I *739:C1 I *D sky130_fd_sc_hd__a211oi_1
*I *525:A I *D sky130_fd_sc_hd__nor2_1
*I *518:A1 I *D sky130_fd_sc_hd__o211ai_1
*I *548:X O *D sky130_fd_sc_hd__buf_4
*CAP
1 *631:B1 0.000441255
2 *584:A_N 6.49747e-05
3 *657:A1 9.85241e-05
4 *586:B 0
5 *592:B 0.000503752
6 *556:A 4.70385e-05
7 *539:A1 0.000369222
8 *486:B 0
9 *598:B 0
10 *761:A 4.16015e-05
11 *717:B_N 0.000150147
12 *768:A 0
13 *845:A1 3.42043e-05
14 *737:A1 1.66352e-05
15 *842:B2 0.000134553
16 *797:B1 4.77344e-05
17 *542:A 9.03945e-05
18 *816:A1 0.00037978
19 *715:A_N 5.99253e-05
20 *812:A1 0
21 *720:B 0
22 *606:A 0.000150842
23 *581:B 0
24 *577:A_N 5.03412e-05
25 *636:A 4.12711e-05
26 *775:B_N 0
27 *751:A 4.78538e-05
28 *773:A1 0.000254156
29 *753:A1 1.85108e-05
30 *684:A1 0
31 *692:B2 0.000585231
32 *688:A 2.95656e-05
33 *640:A1 0
34 *617:A 5.52618e-05
35 *680:B_N 8.94601e-05
36 *774:A2 0
37 *787:A 2.82969e-05
38 *829:B1 0.000136151
39 *804:B 0
40 *547:B 2.03067e-05
41 *707:B 2.20382e-05
42 *740:A1 0.000324467
43 *739:C1 3.21467e-05
44 *525:A 0.000457615
45 *518:A1 1.92757e-05
46 *548:X 0.000922324
47 *40:662 0.000606357
48 *40:647 0.000437116
49 *40:636 0.000286639
50 *40:623 0.000768879
51 *40:608 0.000569095
52 *40:569 0.000597641
53 *40:469 0.000789707
54 *40:453 0.000532421
55 *40:435 7.96265e-05
56 *40:412 0.000214526
57 *40:401 0.000114025
58 *40:387 0.000278906
59 *40:381 0.000460614
60 *40:379 0.000433034
61 *40:360 0.000532543
62 *40:356 0.000540714
63 *40:331 0.000757075
64 *40:322 0.000410496
65 *40:284 0.000291806
66 *40:278 0.0006607
67 *40:272 0.000448428
68 *40:249 0.000624014
69 *40:227 8.94601e-05
70 *40:225 0.000657472
71 *40:200 0.00113664
72 *40:194 0.00136762
73 *40:188 0.000906998
74 *40:186 0.00061166
75 *40:180 0.000358941
76 *40:178 0.000648979
77 *40:163 0.000805574
78 *40:152 0.000506588
79 *40:144 0.000938601
80 *40:127 0.000807074
81 *40:116 0.000544059
82 *40:110 0.00053221
83 *40:95 0.00109382
84 *40:85 0.00126892
85 *40:60 0.000880461
86 *40:35 0.00108129
87 *40:26 0.000793592
88 *40:16 0.000605339
89 *40:12 0.00131085
90 *518:A1 *518:B1 0
91 *525:A *525:B 4.31603e-06
92 *525:A *550:B1 0.000264614
93 *525:A *627:A 0.000210815
94 *525:A *44:70 2.22974e-05
95 *525:A *310:16 8.08437e-05
96 *539:A1 *486:A 1.88563e-05
97 *539:A1 *498:B 6.46815e-05
98 *539:A1 *539:B1 0.000301494
99 *539:A1 *704:A2 2.77564e-05
100 *539:A1 *50:26 0
101 *539:A1 *57:119 9.81959e-05
102 *539:A1 *101:34 0.000510396
103 *539:A1 *393:22 0.000185963
104 *539:A1 *405:23 1.00004e-05
105 *539:A1 *422:152 2.26886e-06
106 *539:A1 *422:158 1.73296e-05
107 *539:A1 *430:29 1.75e-05
108 *542:A *431:14 0.000212467
109 *547:B *547:A 4.76161e-06
110 *556:A *48:8 3.21692e-05
111 *556:A *457:125 2.652e-05
112 *556:A *457:127 3.6367e-05
113 *577:A_N *577:B 8.23763e-05
114 *577:A_N *789:A 1.09551e-05
115 *577:A_N *72:28 0.000142314
116 *584:A_N *584:B 7.89421e-05
117 *584:A_N *642:A2 1.61631e-05
118 *584:A_N *75:6 4.88955e-05
119 *584:A_N *75:8 9.97706e-05
120 *584:A_N *455:22 2.41274e-06
121 *592:B *592:A_N 2.84445e-05
122 *592:B *83:12 0.000254532
123 *592:B *138:103 6.50586e-05
124 *592:B *139:12 6.50727e-05
125 *592:B *455:47 7.43496e-05
126 *606:A *97:10 2.57986e-05
127 *617:A *685:C1 7.66391e-06
128 *617:A *687:A1 6.27782e-05
129 *617:A *771:A 0.000107496
130 *631:B1 *584:B 5.46889e-05
131 *631:B1 *588:A1 2.26728e-05
132 *631:B1 *588:A2 0.000204783
133 *631:B1 *594:B1 0
134 *631:B1 *594:C1 4.52469e-05
135 *631:B1 *631:A2 6.08467e-05
136 *631:B1 *635:A2 6.38891e-05
137 *631:B1 *866:A 1.5714e-05
138 *631:B1 *79:10 0.000444256
139 *631:B1 *454:49 2.99059e-06
140 *631:B1 *457:228 4.97617e-05
141 *636:A *44:237 0.000106215
142 *636:A *44:239 6.92705e-05
143 *657:A1 *643:A2 7.42443e-05
144 *657:A1 *644:A2 0.000166708
145 *657:A1 *657:C1 0.000107496
146 *657:A1 *56:99 0.000261237
147 *680:B_N *777:A2 3.07848e-05
148 *688:A *640:A2 7.65917e-05
149 *688:A *129:16 7.68813e-05
150 *692:B2 *513:B 0.000113968
151 *692:B2 *691:A1 0
152 *692:B2 *692:A1_N 0
153 *692:B2 *692:B1 3.38527e-05
154 *692:B2 *693:D 0.000364307
155 *692:B2 *419:28 7.68538e-06
156 *692:B2 *455:81 2.0476e-05
157 *692:B2 *455:90 0.000320063
158 *692:B2 *455:141 0.0001651
159 *707:B *547:A 2.64116e-05
160 *707:B *707:A_N 5.38064e-06
161 *707:B *718:A 7.83608e-08
162 *715:A_N *812:A2 1.78868e-05
163 *715:A_N *813:B1 3.99086e-06
164 *715:A_N *204:8 0.000107496
165 *717:B_N *852:A2 1.65872e-05
166 *717:B_N *56:612 0.000107496
167 *717:B_N *57:220 3.86704e-05
168 *717:B_N *204:109 0.000154145
169 *717:B_N *455:353 0.000100426
170 *717:B_N *455:383 7.86884e-05
171 *739:C1 *95:124 5.81204e-05
172 *740:A1 *719:C1 0.000194988
173 *740:A1 *769:A2 6.3657e-05
174 *740:A1 *44:124 3.15028e-05
175 *740:A1 *454:497 7.70344e-05
176 *740:A1 *455:325 6.7034e-05
177 *740:A1 *455:342 6.30626e-05
178 *740:A1 *455:353 2.94067e-05
179 *751:A *755:A2 4.68502e-05
180 *751:A *884:C_N 3.50249e-05
181 *751:A *239:23 8.36586e-06
182 *751:A *263:54 4.68502e-05
183 *753:A1 *175:21 3.75603e-05
184 *753:A1 *175:36 3.75603e-05
185 *761:A *761:B_N 0.000107496
186 *761:A *249:8 0.000154145
187 *773:A1 *735:A2 7.84457e-06
188 *773:A1 *752:B 1.05106e-05
189 *773:A1 *753:B1 6.3657e-05
190 *773:A1 *759:C1 1.78942e-05
191 *773:A1 *773:B2 2.54323e-05
192 *773:A1 *782:A2 8.35311e-05
193 *773:A1 *785:A2 1.09323e-05
194 *773:A1 *813:A3 0
195 *787:A *875:B 3.63593e-05
196 *787:A *455:187 5.13902e-05
197 *797:B1 *669:A_N 6.08467e-05
198 *797:B1 *797:A2 3.63593e-05
199 *797:B1 *62:115 4.79289e-05
200 *816:A1 *816:A2 0.000202719
201 *816:A1 *817:A3 4.22306e-05
202 *816:A1 *431:14 0.000249029
203 *816:A1 *431:24 1.4091e-06
204 *829:B1 *44:151 1.94615e-05
205 *829:B1 *218:20 0.000119182
206 *829:B1 *218:54 0.000289039
207 *829:B1 *453:253 0.000345238
208 *842:B2 *842:A2 2.99978e-05
209 *842:B2 *393:106 0.00036741
210 *842:B2 *397:67 0.000321615
211 *842:B2 *397:91 0.000207266
212 *845:A1 *845:A2 0.000114334
213 *845:A1 *57:237 6.36477e-05
214 *40:12 *56:62 0
215 *40:12 *101:34 0.000294356
216 *40:12 *456:12 1.59362e-06
217 *40:16 *602:A1 0.00015661
218 *40:16 *56:737 7.28994e-06
219 *40:16 *59:28 3.03904e-05
220 *40:16 *86:10 0.000324605
221 *40:16 *422:158 1.91246e-05
222 *40:26 *621:B 6.08467e-05
223 *40:26 *704:B1 6.64392e-05
224 *40:26 *59:28 3.33269e-05
225 *40:26 *86:10 0.000140365
226 *40:26 *454:345 0.000110757
227 *40:26 *454:355 0.000152521
228 *40:35 *518:B1 0.000348738
229 *40:35 *454:355 4.73598e-05
230 *40:60 *518:B1 0.000152963
231 *40:60 *739:A2 0.000110306
232 *40:60 *95:124 3.31223e-05
233 *40:85 *849:B1 0.000260374
234 *40:85 *851:B1 7.50872e-05
235 *40:85 *859:A 3.07159e-05
236 *40:85 *41:30 1.47102e-05
237 *40:85 *95:124 1.49118e-06
238 *40:85 *249:8 0.000217506
239 *40:95 *708:C1 4.88112e-06
240 *40:95 *740:B1 0.000147993
241 *40:95 *769:A1 9.07951e-05
242 *40:95 *59:290 1.66626e-05
243 *40:95 *196:24 2.7816e-06
244 *40:95 *226:24 1.43059e-05
245 *40:95 *237:34 2.61452e-05
246 *40:95 *249:34 0.000805347
247 *40:95 *454:514 2.56795e-05
248 *40:110 *770:B1 0.000136543
249 *40:110 *44:124 8.05139e-06
250 *40:110 *455:353 0.000171582
251 *40:116 *547:A 1.10051e-05
252 *40:116 *707:A_N 2.2279e-05
253 *40:116 *718:A 0.000117543
254 *40:116 *455:359 2.77625e-06
255 *40:127 *547:A 0.000143685
256 *40:127 *196:8 6.08467e-05
257 *40:152 *767:A 7.68538e-06
258 *40:152 *767:B 2.16355e-05
259 *40:152 *768:B 0.000218245
260 *40:152 *805:A1 0.000122978
261 *40:152 *805:B1 9.42945e-05
262 *40:152 *807:A2 1.14175e-05
263 *40:152 *825:A2 4.0143e-05
264 *40:152 *827:A2 0.000101133
265 *40:152 *56:550 1.04511e-05
266 *40:152 *56:559 1.87125e-05
267 *40:152 *218:54 6.11447e-06
268 *40:152 *218:84 0.000153225
269 *40:152 *255:6 0.000116
270 *40:152 *256:14 5.99529e-06
271 *40:163 *805:A1 8.72115e-06
272 *40:163 *44:151 3.40414e-05
273 *40:163 *56:550 6.14682e-06
274 *40:163 *218:54 0.000161318
275 *40:178 *846:C 6.64392e-05
276 *40:178 *51:106 4.78577e-05
277 *40:178 *57:237 0.000207892
278 *40:178 *57:248 0.000159908
279 *40:178 *453:253 0.000144241
280 *40:180 *737:A2 0.000111802
281 *40:180 *845:A2 2.5292e-05
282 *40:180 *56:380 6.36477e-05
283 *40:186 *711:A 1.41976e-05
284 *40:186 *711:B 3.86581e-05
285 *40:186 *736:A2 7.78924e-05
286 *40:186 *737:B1 2.16355e-05
287 *40:186 *845:A2 6.70598e-05
288 *40:186 *848:A2 0
289 *40:186 *56:344 0.000186597
290 *40:186 *56:380 0.000343836
291 *40:186 *138:47 1.55462e-05
292 *40:188 *138:47 9.12238e-05
293 *40:194 *697:B 0.000172701
294 *40:194 *698:A2 2.92469e-05
295 *40:194 *878:A2 0
296 *40:194 *59:356 7.14746e-05
297 *40:194 *138:32 1.91391e-05
298 *40:194 *138:47 0.000222057
299 *40:194 *168:58 4.88764e-06
300 *40:194 *168:85 1.39156e-05
301 *40:194 *269:12 1.25173e-05
302 *40:194 *385:101 0
303 *40:200 *640:A2 1.7945e-05
304 *40:200 *781:A1 0.000112784
305 *40:200 *855:B 4.62935e-05
306 *40:200 *858:A2 3.88655e-06
307 *40:200 *882:A2 2.45675e-05
308 *40:200 *885:D1 6.47736e-05
309 *40:200 *59:356 1.3807e-05
310 *40:200 *59:358 9.20374e-05
311 *40:200 *62:73 3.74034e-05
312 *40:200 *62:94 0.000132133
313 *40:200 *175:21 0.000156955
314 *40:200 *269:12 0.000200221
315 *40:200 *455:187 0.000192258
316 *40:225 *777:A2 0.000107434
317 *40:225 *855:B 0.00013588
318 *40:225 *876:B 0.000337506
319 *40:225 *879:A2 0.000161234
320 *40:225 *41:12 0.000798357
321 *40:225 *97:33 0.000138835
322 *40:225 *265:12 0.000113812
323 *40:249 *696:B 0
324 *40:249 *771:A 0.000236207
325 *40:249 *777:A2 4.80576e-05
326 *40:249 *779:A 0.000203756
327 *40:249 *265:12 0.000288856
328 *40:272 *699:A 0.000111409
329 *40:272 *779:A 3.51505e-05
330 *40:272 *62:73 0.000347651
331 *40:272 *165:16 0.000160295
332 *40:272 *236:20 0.000166806
333 *40:278 *684:C1 3.99086e-06
334 *40:278 *884:B 0.000102166
335 *40:284 *549:B 0
336 *40:284 *688:B_N 9.4116e-06
337 *40:284 *884:B 4.7918e-05
338 *40:284 *131:20 6.31229e-05
339 *40:284 *165:16 0
340 *40:322 *175:21 0.00015281
341 *40:322 *175:36 1.37189e-05
342 *40:331 *175:36 0.000226895
343 *40:356 *759:C1 5.32225e-05
344 *40:356 *812:A2 1.82679e-05
345 *40:356 *175:36 2.85759e-05
346 *40:356 *204:8 0.000253916
347 *40:360 *811:B1 1.22858e-05
348 *40:360 *239:23 0.000273509
349 *40:360 *263:54 0.000510917
350 *40:360 *286:16 4.60375e-07
351 *40:360 *454:237 2.57465e-06
352 *40:360 *455:245 1.66626e-05
353 *40:360 *455:260 0.000156085
354 *40:360 *455:271 2.77419e-05
355 *40:379 *791:A2 6.08467e-05
356 *40:379 *68:19 4.11872e-05
357 *40:381 *56:511 0
358 *40:381 *68:8 0.000174906
359 *40:381 *68:19 0.000109229
360 *40:381 *72:90 0
361 *40:381 *97:33 2.33103e-06
362 *40:381 *263:48 0
363 *40:387 *44:237 0
364 *40:387 *44:239 0.000224395
365 *40:387 *263:48 0
366 *40:387 *277:12 0
367 *40:412 *577:B 0.000210197
368 *40:412 *56:511 0.000118166
369 *40:412 *72:28 0.000277502
370 *40:435 *812:A2 7.92757e-06
371 *40:435 *204:8 6.08467e-05
372 *40:453 *669:A_N 9.32983e-05
373 *40:453 *840:A 3.95516e-05
374 *40:453 *840:C 0.000408868
375 *40:453 *233:37 0.000733326
376 *40:469 *669:A_N 0.000158451
377 *40:469 *701:A 0.000135571
378 *40:469 *749:C1 0.000311357
379 *40:469 *817:A1 0.000121665
380 *40:469 *233:37 0.000318331
381 *40:469 *237:34 0.000200794
382 *40:569 *498:B 7.86825e-06
383 *40:569 *98:12 4.20184e-06
384 *40:569 *101:34 0.000400432
385 *40:608 *455:66 0.000163428
386 *40:608 *455:81 0.00025196
387 *40:608 *457:125 2.652e-05
388 *40:623 *748:D_N 0.000200794
389 *40:623 *139:12 9.55447e-05
390 *40:636 *56:101 0.000148144
391 *40:636 *139:12 0.000148144
392 *40:647 *644:A2 1.66626e-05
393 *40:647 *657:A2 0.000108671
394 *40:647 *657:C1 4.69495e-06
395 *40:647 *56:99 0.000205649
396 *40:647 *56:101 0.000189206
397 *40:647 *59:46 2.57465e-06
398 *40:647 *454:49 2.2466e-06
399 *40:647 *454:53 9.57557e-06
400 *40:662 *584:B 2.6524e-05
401 *40:662 *588:A1 2.22156e-05
402 *40:662 *56:99 6.68253e-06
403 *40:662 *59:46 8.74843e-05
404 *40:662 *454:49 3.16908e-05
405 *539:A2 *539:A1 9.81959e-05
406 *633:A *631:B1 0.000112509
407 *642:B2 *584:A_N 2.53145e-06
408 *649:A2 *556:A 7.50722e-05
409 *649:A2 *40:608 6.64609e-05
410 *661:B *542:A 7.50872e-05
411 *669:B *797:B1 6.27718e-05
412 *669:B *40:453 1.18671e-05
413 *669:B *40:469 9.35709e-05
414 *676:B *40:272 3.82228e-05
415 *676:B *40:278 0.000110886
416 *676:B *40:284 7.09666e-06
417 *680:A *680:B_N 9.81842e-05
418 *701:B *40:469 5.01608e-05
419 *754:B1 *40:379 9.12416e-06
420 *754:B1 *40:381 0.000148227
421 *779:B_N *617:A 2.16355e-05
422 *779:B_N *40:249 1.65872e-05
423 *819:A1 *773:A1 4.12977e-05
424 *850:A2 *525:A 8.08437e-05
425 *878:A1 *40:200 0
426 *881:A1 *40:249 5.20674e-05
427 *26:24 *40:186 0.000223776
428 *26:24 *40:188 0.000270995
429 *26:24 *40:194 0.00014431
430 *27:15 *525:A 5.39635e-06
431 *27:23 *40:12 0
432 *27:23 *40:569 0
433 *27:43 *525:A 3.09803e-05
434 *28:60 *692:B2 0.000229154
435 *28:82 *40:272 3.51505e-05
436 *30:255 *542:A 1.24272e-05
437 *30:268 *542:A 3.98252e-05
438 *30:268 *816:A1 2.99506e-05
439 *30:270 *816:A1 0.000233003
440 *30:276 *816:A1 9.12416e-06
441 *30:318 *40:200 1.5714e-05
442 *30:337 *751:A 6.08467e-05
443 *30:337 *40:379 0.000299994
444 *32:16 *40:144 0.000370891
445 *34:31 *542:A 6.28168e-05
446 *37:179 *773:A1 5.1584e-05
447 *37:330 *40:249 9.92215e-05
448 *37:398 *40:379 7.66391e-06
449 *38:88 *631:B1 0.000197812
450 *38:389 *40:379 4.11872e-05
451 *39:68 *40:144 0.000356405
*RES
1 *548:X *40:12 19.6882 
2 *40:12 *40:16 9.56093 
3 *40:16 *40:26 15.2886 
4 *40:26 *518:A1 9.82786 
5 *40:26 *40:35 7.93324 
6 *40:35 *525:A 38.1978 
7 *40:35 *40:60 7.37864 
8 *40:60 *739:C1 10.491 
9 *40:60 *40:85 20.2549 
10 *40:85 *40:95 13.1959 
11 *40:95 *740:A1 22.7735 
12 *40:95 *40:110 3.28538 
13 *40:110 *40:116 10.7393 
14 *40:116 *707:B 10.1232 
15 *40:116 *40:127 5.76908 
16 *40:127 *547:B 9.82786 
17 *40:127 *40:144 24.0564 
18 *40:144 *40:152 17.188 
19 *40:152 *804:B 13.7491 
20 *40:152 *40:163 3.81055 
21 *40:163 *829:B1 20.9794 
22 *40:163 *40:178 17.4488 
23 *40:178 *40:180 2.38721 
24 *40:180 *40:186 15.0929 
25 *40:186 *40:188 5.56926 
26 *40:188 *40:194 18.2766 
27 *40:194 *40:200 23.5289 
28 *40:200 *787:A 14.7506 
29 *40:200 *40:225 21.9397 
30 *40:225 *40:227 4.5 
31 *40:227 *774:A2 9.24915 
32 *40:227 *680:B_N 11.8293 
33 *40:225 *40:249 13.4263 
34 *40:249 *617:A 11.0817 
35 *40:249 *40:272 21.6036 
36 *40:272 *40:278 7.47064 
37 *40:278 *40:284 9.70287 
38 *40:284 *640:A1 9.24915 
39 *40:284 *688:A 11.0817 
40 *40:278 *692:B2 25.8299 
41 *40:272 *684:A1 9.24915 
42 *40:194 *40:322 2.38721 
43 *40:322 *753:A1 10.2378 
44 *40:322 *40:331 4.05102 
45 *40:331 *773:A1 24.7786 
46 *40:331 *40:356 5.90773 
47 *40:356 *40:360 14.637 
48 *40:360 *751:A 15.474 
49 *40:360 *40:379 14.6071 
50 *40:379 *40:381 6.39977 
51 *40:381 *40:387 10.7955 
52 *40:387 *775:B_N 9.24915 
53 *40:387 *636:A 11.0817 
54 *40:381 *40:401 4.5 
55 *40:401 *577:A_N 11.6605 
56 *40:401 *40:412 4.05102 
57 *40:412 *581:B 9.24915 
58 *40:412 *606:A 12.7697 
59 *40:379 *720:B 13.7491 
60 *40:356 *40:435 0.723396 
61 *40:435 *812:A1 9.24915 
62 *40:435 *715:A_N 11.1059 
63 *40:188 *40:453 12.9878 
64 *40:453 *40:469 17.4488 
65 *40:469 *816:A1 23.2435 
66 *40:469 *542:A 17.6574 
67 *40:453 *797:B1 19.974 
68 *40:186 *842:B2 20.4526 
69 *40:180 *737:A1 9.82786 
70 *40:178 *845:A1 11.1059 
71 *40:144 *768:A 9.24915 
72 *40:110 *717:B_N 19.0748 
73 *40:85 *761:A 11.0817 
74 *40:16 *598:B 13.7491 
75 *40:12 *40:569 8.83271 
76 *40:569 *486:B 9.24915 
77 *40:569 *539:A1 31.9343 
78 *692:B2 *40:608 19.7715 
79 *40:608 *556:A 15.5457 
80 *40:608 *40:623 7.99641 
81 *40:623 *592:B 18.2072 
82 *40:623 *40:636 7.1625 
83 *40:636 *586:B 13.7491 
84 *40:636 *40:647 7.96307 
85 *40:647 *657:A1 18.5477 
86 *40:647 *40:662 3.07775 
87 *40:662 *584:A_N 16.1605 
88 *40:662 *631:B1 28.7649 
*END

*D_NET *41 0.0181792
*CONN
*I *875:B I *D sky130_fd_sc_hd__nand2_1
*I *838:B1 I *D sky130_fd_sc_hd__o21ai_0
*I *719:A1 I *D sky130_fd_sc_hd__o221ai_1
*I *550:B1 I *D sky130_fd_sc_hd__a21oi_1
*I *549:X O *D sky130_fd_sc_hd__or2_1
*CAP
1 *875:B 0.000583493
2 *838:B1 0.000159067
3 *719:A1 0.000440817
4 *550:B1 0.000600664
5 *549:X 0.000385231
6 *41:30 0.00217846
7 *41:18 0.00246894
8 *41:12 0.00214162
9 *550:B1 *537:B1 7.83931e-05
10 *550:B1 *550:A1 0.000125315
11 *550:B1 *627:A 9.68966e-06
12 *550:B1 *822:B 3.05511e-05
13 *550:B1 *849:A2 0.00010072
14 *550:B1 *849:B1 8.57082e-05
15 *550:B1 *851:A3 0.000114594
16 *550:B1 *431:12 1.07529e-05
17 *550:B1 *454:368 0.000126643
18 *719:A1 *719:B2 1.66771e-05
19 *719:A1 *719:C1 6.50586e-05
20 *719:A1 *733:B 3.08014e-05
21 *719:A1 *849:B1 1.34424e-05
22 *719:A1 *861:B1 6.3657e-05
23 *719:A1 *44:85 1.63138e-05
24 *719:A1 *204:69 7.465e-05
25 *719:A1 *204:88 0.00014667
26 *719:A1 *249:8 0.000604141
27 *719:A1 *249:34 1.9101e-05
28 *719:A1 *357:18 8.34211e-06
29 *838:B1 *798:A2 2.43368e-05
30 *838:B1 *56:314 5.60804e-05
31 *838:B1 *168:58 6.12855e-05
32 *838:B1 *267:49 0.000101888
33 *838:B1 *385:101 0.000106696
34 *838:B1 *431:24 4.83026e-05
35 *875:B *640:A2 0.000217937
36 *875:B *875:A 1.4581e-05
37 *875:B *876:B 3.76933e-05
38 *875:B *879:A2 4.33819e-05
39 *875:B *880:A2 6.27031e-05
40 *875:B *880:B1 0.000268798
41 *875:B *885:A2 7.7639e-06
42 *875:B *72:28 0
43 *875:B *138:20 8.39242e-05
44 *875:B *274:31 3.40719e-06
45 *875:B *454:153 1.41976e-05
46 *875:B *455:187 0.000118166
47 *875:B *455:200 8.2376e-05
48 *41:12 *549:B 2.1558e-06
49 *41:12 *876:B 8.41266e-06
50 *41:12 *97:33 6.85532e-05
51 *41:12 *138:20 0.00117296
52 *41:12 *177:8 0.000131599
53 *41:18 *858:A2 0.000447131
54 *41:18 *70:48 0.000467189
55 *41:18 *138:32 5.25588e-05
56 *41:18 *158:26 0.000215476
57 *41:30 *709:A2 1.11823e-05
58 *41:30 *709:B1 0.000291228
59 *41:30 *739:B1 1.47102e-05
60 *41:30 *798:A2 0.00015936
61 *41:30 *798:B1 0.000107863
62 *41:30 *838:A2 2.33463e-05
63 *41:30 *841:A1_N 3.66916e-05
64 *41:30 *841:A2_N 3.89928e-05
65 *41:30 *851:B1 0
66 *41:30 *858:A1 0.00031613
67 *41:30 *871:A2 2.26455e-05
68 *41:30 *56:314 0.000153427
69 *41:30 *62:115 2.27901e-06
70 *41:30 *70:63 9.32938e-05
71 *41:30 *70:76 0.000168075
72 *41:30 *107:18 7.58067e-06
73 *41:30 *107:33 7.0498e-05
74 *41:30 *107:69 9.03762e-06
75 *41:30 *168:101 0.000202007
76 *41:30 *267:49 5.1493e-06
77 *41:30 *385:80 0.000226037
78 *41:30 *430:53 2.10667e-05
79 *41:30 *430:57 0.000216244
80 *525:A *550:B1 0.000264614
81 *603:A1 *550:B1 4.78545e-05
82 *680:A *41:12 0.000143371
83 *787:A *875:B 3.63593e-05
84 *787:B_N *875:B 7.26959e-06
85 *26:146 *550:B1 3.5534e-06
86 *27:6 *550:B1 3.05606e-05
87 *27:15 *550:B1 1.40777e-05
88 *38:219 *838:B1 2.53145e-06
89 *40:85 *41:30 1.47102e-05
90 *40:225 *41:12 0.000798357
*RES
1 *549:X *41:12 21.606 
2 *41:12 *41:18 4.23282 
3 *41:18 *41:30 38.1913 
4 *41:30 *550:B1 35.0793 
5 *41:30 *719:A1 30.814 
6 *41:18 *838:B1 21.1499 
7 *41:12 *875:B 38.4197 
*END

*D_NET *42 0.00155805
*CONN
*I *551:A2 I *D sky130_fd_sc_hd__o21ai_0
*I *550:Y O *D sky130_fd_sc_hd__a21oi_1
*CAP
1 *551:A2 0.000409527
2 *550:Y 0.000409527
3 *551:A2 *491:B 5.39635e-06
4 *551:A2 *539:B1 3.46184e-05
5 *551:A2 *550:A1 2.41274e-06
6 *551:A2 *554:B1 0.000143047
7 *551:A2 *627:A 0.000110109
8 *551:A2 *57:119 0
9 *551:A2 *398:19 0.000298687
10 *551:A2 *398:32 1.07248e-05
11 *544:A2 *551:A2 0.00010813
12 *554:A2 *551:A2 2.58726e-05
*RES
1 *550:Y *551:A2 39.146 
*END

*D_NET *43 0.000337764
*CONN
*I *554:B1 I *D sky130_fd_sc_hd__a221o_1
*I *551:Y O *D sky130_fd_sc_hd__o21ai_0
*CAP
1 *554:B1 6.6499e-05
2 *551:Y 6.6499e-05
3 *554:B1 *627:A 6.17194e-05
4 *551:A2 *554:B1 0.000143047
*RES
1 *551:Y *554:B1 30.1608 
*END

*D_NET *44 0.038273
*CONN
*I *539:B1 I *D sky130_fd_sc_hd__o21ai_0
*I *498:A I *D sky130_fd_sc_hd__nand3_2
*I *833:B1 I *D sky130_fd_sc_hd__a211oi_1
*I *767:B I *D sky130_fd_sc_hd__nor2_1
*I *730:A_N I *D sky130_fd_sc_hd__and2b_1
*I *710:B_N I *D sky130_fd_sc_hd__nor2b_1
*I *490:A I *D sky130_fd_sc_hd__nand2_2
*I *606:B I *D sky130_fd_sc_hd__nand2_1
*I *636:B I *D sky130_fd_sc_hd__or2_0
*I *775:A I *D sky130_fd_sc_hd__nor2b_2
*I *790:B1 I *D sky130_fd_sc_hd__o21ai_0
*I *792:A2 I *D sky130_fd_sc_hd__o22ai_1
*I *734:A I *D sky130_fd_sc_hd__nor2b_1
*I *755:A1 I *D sky130_fd_sc_hd__o21ai_0
*I *883:B I *D sky130_fd_sc_hd__nor3_1
*I *729:B I *D sky130_fd_sc_hd__or2_1
*I *764:A I *D sky130_fd_sc_hd__nand2_1
*I *761:B_N I *D sky130_fd_sc_hd__nor2b_1
*I *733:B I *D sky130_fd_sc_hd__nand2_1
*I *861:A1 I *D sky130_fd_sc_hd__o221ai_1
*I *525:B I *D sky130_fd_sc_hd__nor2_1
*I *703:S I *D sky130_fd_sc_hd__mux2i_1
*I *706:B2 I *D sky130_fd_sc_hd__a221oi_1
*I *661:A I *D sky130_fd_sc_hd__xnor2_1
*I *552:X O *D sky130_fd_sc_hd__buf_4
*CAP
1 *539:B1 0.000335258
2 *498:A 6.79317e-05
3 *833:B1 0.000515794
4 *767:B 1.98947e-05
5 *730:A_N 3.13101e-05
6 *710:B_N 0
7 *490:A 2.19858e-05
8 *606:B 0
9 *636:B 0
10 *775:A 0
11 *790:B1 7.25812e-05
12 *792:A2 0.000139542
13 *734:A 0
14 *755:A1 0
15 *883:B 8.95038e-05
16 *729:B 0.000877764
17 *764:A 1.60257e-05
18 *761:B_N 0.000133052
19 *733:B 7.32079e-05
20 *861:A1 2.12792e-05
21 *525:B 2.15683e-05
22 *703:S 0
23 *706:B2 0.000139379
24 *661:A 0.00032953
25 *552:X 1.41765e-05
26 *44:322 0.000513265
27 *44:294 0.000829936
28 *44:239 0.000105077
29 *44:237 0.00017908
30 *44:231 0.000249121
31 *44:229 0.000373
32 *44:216 0.00043481
33 *44:214 9.66261e-05
34 *44:187 0.000272095
35 *44:179 0.000487991
36 *44:165 0.00148548
37 *44:151 0.00196196
38 *44:126 0.00186077
39 *44:124 0.000811546
40 *44:107 0.000408994
41 *44:85 0.000333928
42 *44:83 0.00034144
43 *44:70 0.000627037
44 *44:61 0.000746107
45 *44:54 0.000344087
46 *44:50 0.000506129
47 *44:18 0.0008477
48 *44:8 0.000719215
49 *490:A *97:16 6.50586e-05
50 *498:A *498:B 4.72245e-05
51 *498:A *430:29 0.000157107
52 *539:B1 *519:B 0.000135984
53 *539:B1 *51:154 4.7203e-05
54 *539:B1 *101:34 4.00679e-05
55 *539:B1 *422:150 5.45772e-05
56 *661:A *558:A1 4.89753e-05
57 *661:A *705:A3 5.33358e-06
58 *661:A *726:B1 4.97286e-05
59 *661:A *48:149 0.000171908
60 *661:A *48:183 3.6325e-05
61 *706:B2 *574:A1 7.43852e-05
62 *706:B2 *607:C 0.000244418
63 *706:B2 *725:A3 9.55339e-05
64 *706:B2 *95:76 9.55339e-05
65 *729:B *711:B 7.30797e-05
66 *729:B *735:A2 0.000216859
67 *729:B *736:B1 1.5714e-05
68 *729:B *874:B2 0.0001743
69 *729:B *56:342 0.000298705
70 *729:B *57:237 0.000118017
71 *729:B *212:30 1.88483e-05
72 *729:B *258:8 4.91325e-05
73 *729:B *263:54 4.90233e-06
74 *729:B *454:436 0.000283311
75 *730:A_N *56:397 6.50586e-05
76 *733:B *204:69 5.30145e-05
77 *733:B *334:12 0.000142962
78 *761:B_N *249:8 3.8122e-05
79 *764:A *204:109 1.49883e-05
80 *767:B *767:A 6.08467e-05
81 *790:B1 *790:A1 3.01683e-06
82 *790:B1 *126:14 0.000228593
83 *792:A2 *792:B2 2.16355e-05
84 *833:B1 *827:A2 0.00014702
85 *833:B1 *828:A1 1.37669e-05
86 *833:B1 *828:B1 0.000157107
87 *833:B1 *831:A2 6.3657e-05
88 *833:B1 *835:A2 0.000345908
89 *833:B1 *218:84 0.00018283
90 *833:B1 *454:571 0.000346097
91 *883:B *756:A3 0
92 *883:B *883:C 0.000164044
93 *883:B *244:14 2.16888e-05
94 *883:B *397:16 0.000260263
95 *44:8 *558:B1 2.58757e-05
96 *44:8 *823:A1 6.27782e-05
97 *44:18 *558:A1 0.000141121
98 *44:18 *574:A1 4.00225e-05
99 *44:18 *607:C 7.29623e-05
100 *44:18 *709:A2 2.05925e-05
101 *44:18 *725:A3 0
102 *44:18 *51:154 0.000283777
103 *44:50 *822:B 3.5845e-05
104 *44:50 *51:154 0.000591794
105 *44:50 *422:139 0
106 *44:50 *422:150 3.4796e-05
107 *44:50 *434:26 0.000180646
108 *44:54 *57:97 0.000160047
109 *44:61 *537:A1 3.82228e-05
110 *44:61 *537:A2 4.31534e-05
111 *44:61 *537:B1 6.08467e-05
112 *44:61 *57:97 9.32983e-05
113 *44:61 *431:6 8.23171e-06
114 *44:70 *851:B1 0.000165521
115 *44:70 *861:B2 0.000107496
116 *44:70 *101:34 0.000540797
117 *44:70 *430:47 1.00901e-05
118 *44:70 *455:424 1.55174e-05
119 *44:83 *101:34 0.000305744
120 *44:83 *204:88 0.000157107
121 *44:83 *334:12 4.68502e-05
122 *44:85 *204:88 3.00659e-05
123 *44:85 *249:34 1.66771e-05
124 *44:85 *334:12 0.000200523
125 *44:107 *204:88 6.08467e-05
126 *44:107 *204:109 3.31745e-05
127 *44:107 *455:424 5.481e-05
128 *44:124 *718:A 8.19046e-05
129 *44:124 *766:B 9.75148e-06
130 *44:124 *770:B1 0.000339354
131 *44:124 *57:220 0.00015182
132 *44:124 *57:231 0.000135841
133 *44:124 *204:109 0.000122195
134 *44:124 *454:497 4.73228e-05
135 *44:126 *57:231 0.000262249
136 *44:126 *57:237 0.000173036
137 *44:126 *454:432 0.000141396
138 *44:126 *454:436 0.000102541
139 *44:126 *454:497 0.000191148
140 *44:151 *807:B1 0.000157107
141 *44:151 *56:550 0.000311501
142 *44:151 *397:107 9.87056e-05
143 *44:151 *453:253 0.000188809
144 *44:151 *454:456 1.04731e-05
145 *44:151 *454:469 3.05031e-05
146 *44:165 *710:A 8.43847e-06
147 *44:165 *830:B1 5.86296e-05
148 *44:165 *836:B2 2.36528e-05
149 *44:165 *56:403 8.81102e-05
150 *44:165 *56:422 8.28634e-05
151 *44:165 *56:550 2.95757e-05
152 *44:165 *199:16 1.09113e-05
153 *44:165 *199:39 0.00129202
154 *44:165 *453:253 0.000109602
155 *44:179 *771:B 0.000282689
156 *44:179 *793:A2_N 7.09666e-06
157 *44:179 *794:D 2.67558e-05
158 *44:179 *56:422 3.39641e-05
159 *44:179 *56:428 0.000629419
160 *44:179 *68:19 0
161 *44:179 *199:16 8.36534e-06
162 *44:179 *209:27 0.000355926
163 *44:179 *222:10 9.32983e-05
164 *44:179 *277:12 5.2247e-05
165 *44:187 *755:A2 0.000198358
166 *44:187 *771:B 6.08467e-05
167 *44:187 *222:10 6.08467e-05
168 *44:187 *239:23 0.000154317
169 *44:187 *286:16 0.000347817
170 *44:214 *199:12 1.91246e-05
171 *44:214 *210:14 1.91246e-05
172 *44:216 *792:B2 1.63255e-05
173 *44:229 *679:A 0.000152661
174 *44:229 *723:A1 5.42643e-05
175 *44:229 *126:69 0.000303898
176 *44:229 *199:12 1.56911e-05
177 *44:231 *723:A1 2.42859e-05
178 *44:231 *56:511 0
179 *44:231 *126:69 0.000226281
180 *44:237 *126:14 0.000228593
181 *44:237 *126:69 0.000202136
182 *44:239 *126:14 0.000328363
183 *44:294 *760:B 0.000326737
184 *44:294 *769:A1 8.04172e-05
185 *44:294 *825:A2 1.28709e-05
186 *44:294 *56:584 6.9363e-05
187 *44:294 *196:24 0.000876996
188 *44:294 *454:514 0.000444884
189 *44:322 *51:154 4.28054e-05
190 *44:322 *422:150 4.43331e-05
191 *525:A *525:B 4.31603e-06
192 *525:A *44:70 2.22974e-05
193 *539:A1 *539:B1 0.000301494
194 *539:A2 *539:B1 5.23605e-05
195 *539:A2 *44:61 6.27718e-05
196 *544:A2 *539:B1 1.5714e-05
197 *551:A2 *539:B1 3.46184e-05
198 *636:A *44:237 0.000106215
199 *636:A *44:239 6.92705e-05
200 *661:B *661:A 2.61223e-05
201 *719:A1 *733:B 3.08014e-05
202 *719:A1 *44:85 1.63138e-05
203 *726:B2 *661:A 1.00901e-05
204 *730:B *730:A_N 0.000111708
205 *738:A1 *729:B 1.66626e-05
206 *740:A1 *44:124 3.15028e-05
207 *761:A *761:B_N 0.000107496
208 *793:A1_N *44:179 6.27782e-05
209 *829:B1 *44:151 1.94615e-05
210 *846:B *44:151 8.97449e-05
211 *33:50 *661:A 0.000380042
212 *35:20 *44:18 0
213 *35:20 *44:50 0
214 *37:388 *883:B 2.9856e-05
215 *38:389 *44:216 0
216 *39:30 *44:70 0.000114634
217 *39:30 *44:83 0.000153676
218 *39:30 *44:85 7.09666e-06
219 *40:110 *44:124 8.05139e-06
220 *40:152 *767:B 2.16355e-05
221 *40:163 *44:151 3.40414e-05
222 *40:387 *44:237 0
223 *40:387 *44:239 0.000224395
*RES
1 *552:X *44:8 14.4725 
2 *44:8 *44:18 9.75095 
3 *44:18 *661:A 26.0209 
4 *44:18 *706:B2 19.5134 
5 *44:8 *44:50 11.3828 
6 *44:50 *44:54 6.3326 
7 *44:54 *703:S 9.24915 
8 *44:54 *44:61 6.26943 
9 *44:61 *525:B 9.82786 
10 *44:61 *44:70 12.9247 
11 *44:70 *861:A1 9.82786 
12 *44:70 *44:83 10.6617 
13 *44:83 *44:85 3.90826 
14 *44:85 *733:B 16.4116 
15 *44:85 *761:B_N 16.691 
16 *44:83 *44:107 6.3326 
17 *44:107 *764:A 9.82786 
18 *44:107 *44:124 16.1846 
19 *44:124 *44:126 8.2684 
20 *44:126 *729:B 33.8388 
21 *44:126 *44:151 25.1362 
22 *44:151 *44:165 9.66537 
23 *44:165 *44:179 13.2602 
24 *44:179 *44:187 16.5384 
25 *44:187 *883:B 13.3243 
26 *44:187 *755:A1 9.24915 
27 *44:179 *734:A 9.24915 
28 *44:165 *44:214 9.23604 
29 *44:214 *44:216 1.39857 
30 *44:216 *792:A2 11.0817 
31 *44:216 *44:229 11.9019 
32 *44:229 *44:231 3.90826 
33 *44:231 *44:237 10.5196 
34 *44:237 *44:239 3.49641 
35 *44:239 *790:B1 12.2151 
36 *44:239 *775:A 9.24915 
37 *44:237 *636:B 9.24915 
38 *44:231 *606:B 13.7491 
39 *44:229 *490:A 14.4725 
40 *44:214 *710:B_N 9.24915 
41 *44:151 *730:A_N 15.0271 
42 *44:124 *44:294 8.24077 
43 *44:294 *767:B 14.4725 
44 *44:294 *833:B1 27.6585 
45 *44:50 *44:322 2.98005 
46 *44:322 *498:A 16.1605 
47 *44:322 *539:B1 26.0551 
*END

*D_NET *45 0.000976136
*CONN
*I *554:B2 I *D sky130_fd_sc_hd__a221o_1
*I *553:Y O *D sky130_fd_sc_hd__a31oi_1
*CAP
1 *554:B2 0.000231902
2 *553:Y 0.000231902
3 *554:B2 *553:A1 6.50727e-05
4 *554:B2 *562:B 0.00026349
5 *554:B2 *854:A2 6.08467e-05
6 *554:B2 *59:216 5.85663e-05
7 *554:B2 *59:227 5.10153e-05
8 *554:A2 *554:B2 1.33419e-05
*RES
1 *553:Y *554:B2 25.5876 
*END

*D_NET *46 0.00130095
*CONN
*I *562:B I *D sky130_fd_sc_hd__nand3_1
*I *554:X O *D sky130_fd_sc_hd__a221o_1
*CAP
1 *562:B 0.000395905
2 *554:X 0.000395905
3 *562:B *554:C1 5.30345e-05
4 *562:B *562:A 1.07248e-05
5 *562:B *57:132 0.000122083
6 *562:B *57:160 3.31882e-05
7 *562:B *59:216 2.66208e-05
8 *554:B2 *562:B 0.00026349
*RES
1 *554:X *562:B 35.321 
*END

*D_NET *47 0.0003796
*CONN
*I *561:A2 I *D sky130_fd_sc_hd__a221o_1
*I *555:Y O *D sky130_fd_sc_hd__a21boi_0
*CAP
1 *561:A2 7.88061e-05
2 *555:Y 7.88061e-05
3 *561:A2 *499:B 2.95757e-05
4 *561:A2 *520:B 1.65679e-05
5 *561:A2 *555:A1 1.91246e-05
6 *561:A2 *59:203 3.75221e-05
7 *561:A2 *405:23 0.000119197
*RES
1 *555:Y *561:A2 30.1916 
*END

*D_NET *48 0.0272165
*CONN
*I *558:A1 I *D sky130_fd_sc_hd__o21ai_0
*I *705:B1 I *D sky130_fd_sc_hd__a31oi_1
*I *870:A I *D sky130_fd_sc_hd__xnor2_1
*I *667:B I *D sky130_fd_sc_hd__nor2_1
*I *780:B I *D sky130_fd_sc_hd__maj3_1
*I *696:A I *D sky130_fd_sc_hd__nor2_1
*I *698:B1 I *D sky130_fd_sc_hd__o21ai_0
*I *670:A2 I *D sky130_fd_sc_hd__a221oi_1
*I *575:A1 I *D sky130_fd_sc_hd__o21ai_0
*I *634:B1 I *D sky130_fd_sc_hd__a211oi_1
*I *662:B2 I *D sky130_fd_sc_hd__a2bb2oi_1
*I *671:A2 I *D sky130_fd_sc_hd__a21oi_1
*I *653:A1 I *D sky130_fd_sc_hd__o21ai_0
*I *556:Y O *D sky130_fd_sc_hd__inv_1
*CAP
1 *558:A1 0.000458535
2 *705:B1 2.14233e-05
3 *870:A 0.00117738
4 *667:B 1.58776e-05
5 *780:B 0
6 *696:A 0.000222974
7 *698:B1 0
8 *670:A2 2.07408e-05
9 *575:A1 0.000202614
10 *634:B1 0
11 *662:B2 4.51842e-05
12 *671:A2 0.000185173
13 *653:A1 0.000374932
14 *556:Y 5.01544e-05
15 *48:183 0.000494952
16 *48:157 0.00147977
17 *48:149 0.000810218
18 *48:119 0.000454483
19 *48:108 0.000732879
20 *48:95 0.000522112
21 *48:93 0.00116427
22 *48:67 0.00098867
23 *48:48 0.00116894
24 *48:44 0.00134681
25 *48:23 0.000843898
26 *48:8 0.000730258
27 *558:A1 *558:A2 0.000162102
28 *558:A1 *607:C 2.02035e-05
29 *558:A1 *705:A3 1.78088e-05
30 *558:A1 *725:A1 0.000350129
31 *558:A1 *725:A2 0.000133641
32 *558:A1 *725:A3 0
33 *558:A1 *726:B1 0.000270672
34 *558:A1 *51:154 6.24914e-06
35 *558:A1 *107:69 0.000101725
36 *575:A1 *660:B1 0.000293556
37 *575:A1 *56:62 1.07248e-05
38 *575:A1 *56:76 7.00991e-05
39 *575:A1 *110:12 0.000135186
40 *653:A1 *647:A1 2.65831e-05
41 *653:A1 *649:A1 1.51778e-05
42 *653:A1 *652:B1 0.000158107
43 *653:A1 *653:B1 1.19721e-05
44 *653:A1 *136:8 0
45 *653:A1 *138:20 1.27831e-06
46 *653:A1 *422:14 0.000269345
47 *653:A1 *455:66 3.31733e-05
48 *662:B2 *664:B1 6.08467e-05
49 *667:B *62:115 2.57847e-05
50 *667:B *189:14 6.08467e-05
51 *670:A2 *670:B2 1.92172e-05
52 *670:A2 *674:A2 6.50727e-05
53 *671:A2 *671:B1 0.000107496
54 *671:A2 *672:A 2.88746e-05
55 *671:A2 *673:B1 4.19058e-05
56 *696:A *882:B1 6.53502e-05
57 *696:A *168:31 7.72299e-05
58 *705:B1 *574:A2 6.08467e-05
59 *705:B1 *705:A1 7.92757e-06
60 *705:B1 *706:C1 1.41976e-05
61 *870:A *739:B1 3.44712e-06
62 *870:A *822:A 2.57986e-05
63 *870:A *822:B 5.04829e-06
64 *870:A *851:B1 3.8319e-05
65 *870:A *870:B 1.0759e-05
66 *870:A *871:A2 5.97136e-05
67 *870:A *49:112 3.67089e-06
68 *870:A *310:16 4.07382e-05
69 *870:A *422:139 0.000437169
70 *870:A *431:12 0.000434762
71 *48:8 *748:D_N 0.000230591
72 *48:8 *457:127 8.58541e-05
73 *48:23 *588:A1 1.03594e-05
74 *48:23 *652:B1 0.000233455
75 *48:23 *56:99 1.94615e-05
76 *48:23 *56:101 8.94713e-05
77 *48:23 *62:35 0.000182532
78 *48:23 *77:21 0.000245984
79 *48:23 *77:34 8.20728e-05
80 *48:23 *455:66 0.000130808
81 *48:44 *584:B 0.000312249
82 *48:44 *588:A1 0.000143799
83 *48:44 *594:B1 2.81852e-05
84 *48:44 *644:A2 6.63295e-06
85 *48:44 *674:B1 1.60211e-05
86 *48:44 *699:A 2.20465e-05
87 *48:44 *77:34 0.00011815
88 *48:48 *630:B1 1.75625e-05
89 *48:48 *659:B1 0.000150017
90 *48:48 *674:B1 9.22013e-06
91 *48:48 *80:10 5.66868e-06
92 *48:48 *148:12 0.000462454
93 *48:67 *594:C2 8.59601e-05
94 *48:67 *614:A2 5.87469e-05
95 *48:67 *635:B1 1.53621e-05
96 *48:67 *660:B1 6.96979e-05
97 *48:67 *662:A1_N 1.3134e-05
98 *48:67 *702:A2 2.16305e-05
99 *48:67 *749:C1 8.31088e-06
100 *48:67 *797:A2 5.35749e-05
101 *48:67 *56:76 4.20312e-06
102 *48:67 *56:141 5.62001e-05
103 *48:67 *72:48 0.000115156
104 *48:67 *148:12 7.22263e-05
105 *48:93 *699:A 5.2777e-05
106 *48:93 *56:154 5.80853e-05
107 *48:93 *56:156 6.67465e-05
108 *48:93 *422:44 0
109 *48:108 *670:B1 5.73392e-05
110 *48:108 *670:B2 0.000132219
111 *48:108 *678:A1 4.0744e-05
112 *48:108 *678:B2 0.000441008
113 *48:108 *698:A2 0.000111708
114 *48:108 *782:B1 0.000174699
115 *48:108 *49:23 0.000248437
116 *48:108 *95:27 4.58003e-05
117 *48:108 *422:63 6.23875e-05
118 *48:119 *698:A2 9.32983e-05
119 *48:119 *168:31 5.61355e-05
120 *48:119 *168:58 9.99873e-05
121 *48:119 *422:63 3.82228e-05
122 *48:149 *559:A 1.69932e-05
123 *48:149 *583:A1 3.31745e-05
124 *48:149 *668:B1_N 6.08467e-05
125 *48:149 *674:A2 0.000619447
126 *48:149 *726:A2 0
127 *48:149 *726:B1 0.00016722
128 *48:149 *56:154 3.82289e-06
129 *48:157 *574:A1 0.000464617
130 *48:157 *797:A2 0
131 *48:157 *422:139 3.77568e-05
132 *48:157 *431:12 9.12416e-06
133 *48:157 *431:14 4.12977e-05
134 *48:183 *726:B1 3.88213e-05
135 *556:A *48:8 3.21692e-05
136 *661:A *558:A1 4.89753e-05
137 *661:A *48:149 0.000171908
138 *661:A *48:183 3.6325e-05
139 *664:B2 *48:48 9.32704e-05
140 *664:B2 *48:67 0.000106269
141 *671:A1 *671:A2 6.27718e-05
142 *778:A1 *696:A 0.00015268
143 *850:A1 *870:A 4.89392e-05
144 *850:A2 *870:A 1.00766e-05
145 *918:D *48:149 6.6578e-06
146 *30:251 *48:149 0.000158371
147 *32:151 *575:A1 0.000248398
148 *32:151 *48:67 1.03594e-05
149 *33:50 *48:149 0.000529338
150 *37:52 *670:A2 0.000113968
151 *37:52 *48:93 0.000126336
152 *37:52 *48:108 9.97706e-05
153 *37:64 *48:48 0.000132614
154 *37:345 *696:A 0.000154145
155 *37:360 *696:A 0
156 *38:60 *48:48 0.000281375
157 *38:182 *696:A 0.000333185
158 *38:182 *48:119 0.000372946
159 *44:18 *558:A1 0.000141121
*RES
1 *556:Y *48:8 16.4137 
2 *48:8 *653:A1 23.675 
3 *48:8 *48:23 10.9675 
4 *48:23 *671:A2 18.0172 
5 *48:23 *48:44 6.97721 
6 *48:44 *48:48 15.3745 
7 *48:48 *662:B2 14.4725 
8 *48:48 *48:67 11.9048 
9 *48:67 *634:B1 13.7491 
10 *48:67 *575:A1 22.2985 
11 *48:44 *48:93 10.4522 
12 *48:93 *48:95 4.5 
13 *48:95 *670:A2 10.5271 
14 *48:95 *48:108 18.109 
15 *48:108 *698:B1 9.24915 
16 *48:108 *48:119 13.0083 
17 *48:119 *696:A 22.5602 
18 *48:119 *780:B 13.7491 
19 *48:93 *48:149 27.577 
20 *48:149 *48:157 8.19324 
21 *48:157 *667:B 14.4725 
22 *48:157 *870:A 37.2771 
23 *48:149 *48:183 0.793864 
24 *48:183 *705:B1 14.4725 
25 *48:183 *558:A1 36.6929 
*END

*D_NET *49 0.0107797
*CONN
*I *739:A2 I *D sky130_fd_sc_hd__a211oi_1
*I *823:B1 I *D sky130_fd_sc_hd__a21oi_1
*I *558:B1 I *D sky130_fd_sc_hd__o21ai_0
*I *850:C1 I *D sky130_fd_sc_hd__o211ai_1
*I *746:A2 I *D sky130_fd_sc_hd__o221ai_1
*I *632:B I *D sky130_fd_sc_hd__nand2_1
*I *701:A I *D sky130_fd_sc_hd__nand3_1
*I *744:A I *D sky130_fd_sc_hd__xnor2_1
*I *678:B2 I *D sky130_fd_sc_hd__o22ai_1
*I *686:A I *D sky130_fd_sc_hd__nand2_1
*I *557:Y O *D sky130_fd_sc_hd__clkinv_1
*CAP
1 *739:A2 0.00011718
2 *823:B1 4.93651e-05
3 *558:B1 0.000120203
4 *850:C1 0
5 *746:A2 0.000679187
6 *632:B 4.17229e-05
7 *701:A 8.86971e-05
8 *744:A 2.3147e-05
9 *678:B2 0.00021459
10 *686:A 0
11 *557:Y 0.000159342
12 *49:112 0.000828572
13 *49:104 0.000811941
14 *49:95 0.000631415
15 *49:64 0.000210583
16 *49:49 0.000371128
17 *49:36 0.000410376
18 *49:23 0.000673898
19 *49:10 0.000428523
20 *558:B1 *552:A 6.08467e-05
21 *558:B1 *823:A1 2.32553e-05
22 *632:B *583:A1 6.08467e-05
23 *632:B *746:B1 2.16355e-05
24 *701:A *817:A1 0.000250244
25 *739:A2 *518:B1 8.83916e-05
26 *739:A2 *95:124 1.37189e-05
27 *739:A2 *454:398 0.000124586
28 *744:A *815:B1 6.27782e-05
29 *746:A2 *583:A1 0.000357979
30 *746:A2 *746:B1 8.14875e-05
31 *746:A2 *746:B2 4.23858e-05
32 *823:B1 *823:A1 0.000114271
33 *823:B1 *823:A2 0
34 *823:B1 *310:16 4.29314e-06
35 *49:10 *700:A2 0
36 *49:10 *758:A2 0.000158357
37 *49:10 *265:12 0.000171578
38 *49:23 *83:91 1.99266e-05
39 *49:23 *107:18 0
40 *49:23 *265:12 0.000129685
41 *49:36 *816:B1 0.000156024
42 *49:36 *817:A1 6.3887e-05
43 *49:36 *189:14 6.00085e-05
44 *49:49 *749:B1 2.43314e-05
45 *49:49 *749:D1 9.91445e-05
46 *49:49 *816:B1 4.16614e-05
47 *49:49 *817:A1 6.75088e-05
48 *49:49 *189:14 1.71761e-05
49 *49:64 *749:B1 2.32556e-05
50 *49:64 *189:14 0.000155243
51 *49:95 *583:A1 6.64392e-05
52 *49:95 *714:A2 0
53 *49:95 *837:B1 0.000122098
54 *49:95 *849:A2 0.000200233
55 *49:95 *850:B1 9.12416e-06
56 *49:95 *107:50 0
57 *49:104 *850:B1 1.10793e-05
58 *49:104 *851:B1 0
59 *49:104 *454:398 4.05046e-05
60 *49:112 *823:A2 0
61 *49:112 *310:16 0.000756924
62 *701:B *701:A 4.31603e-06
63 *870:A *49:112 3.67089e-06
64 *37:126 *49:36 0.000134961
65 *37:278 *49:64 6.31996e-05
66 *37:289 *49:64 2.13165e-05
67 *37:330 *49:10 3.02249e-05
68 *40:60 *739:A2 0.000110306
69 *40:469 *701:A 0.000135571
70 *44:8 *558:B1 2.58757e-05
71 *48:108 *678:B2 0.000441008
72 *48:108 *49:23 0.000248437
*RES
1 *557:Y *49:10 18.6595 
2 *49:10 *686:A 13.7491 
3 *49:10 *49:23 11.3501 
4 *49:23 *678:B2 14.9881 
5 *49:23 *49:36 10.4845 
6 *49:36 *744:A 14.4725 
7 *49:36 *49:49 5.05631 
8 *49:49 *701:A 17.2697 
9 *49:49 *49:64 7.57775 
10 *49:64 *632:B 10.5513 
11 *49:64 *746:A2 13.3002 
12 *746:A2 *49:95 28.0049 
13 *49:95 *850:C1 13.7491 
14 *49:95 *49:104 1.00149 
15 *49:104 *49:112 16.3637 
16 *49:112 *558:B1 12.191 
17 *49:112 *823:B1 11.5158 
18 *49:104 *739:A2 17.6896 
*END

*D_NET *50 0.00755545
*CONN
*I *608:A2 I *D sky130_fd_sc_hd__a21oi_1
*I *561:B1 I *D sky130_fd_sc_hd__a221o_1
*I *619:A1 I *D sky130_fd_sc_hd__a21o_1
*I *558:Y O *D sky130_fd_sc_hd__o21ai_0
*CAP
1 *608:A2 0
2 *561:B1 0.000168006
3 *619:A1 0.000726758
4 *558:Y 0.000662009
5 *50:26 0.00110764
6 *50:20 0.000874883
7 *561:B1 *561:B2 1.47046e-05
8 *561:B1 *561:C1 0.000165455
9 *561:B1 *59:196 6.50727e-05
10 *619:A1 *619:B1 3.82228e-05
11 *619:A1 *59:20 4.15143e-05
12 *619:A1 *59:24 0.000217822
13 *619:A1 *59:26 0.000121094
14 *619:A1 *59:28 0.000601865
15 *619:A1 *86:10 0
16 *619:A1 *88:12 0
17 *619:A1 *101:34 3.73224e-05
18 *619:A1 *101:42 0.000752061
19 *619:A1 *407:10 4.16299e-05
20 *619:A1 *422:158 2.00207e-05
21 *50:20 *552:A 0.000114584
22 *50:20 *609:A 0.000132817
23 *50:20 *609:C 4.00421e-05
24 *50:20 *622:A1 5.90398e-06
25 *50:20 *704:B1 4.35419e-05
26 *50:20 *704:B2 0
27 *50:20 *705:A3 0
28 *50:20 *98:12 0.000626922
29 *50:20 *430:29 0.00015901
30 *50:26 *501:B 5.67735e-05
31 *50:26 *86:10 0.000331211
32 *50:26 *98:12 3.5534e-06
33 *539:A1 *50:26 0
34 *32:82 *561:B1 6.50727e-05
35 *32:82 *619:A1 0.00031994
*RES
1 *558:Y *50:20 36.1792 
2 *50:20 *50:26 15.3998 
3 *50:26 *619:A1 43.5419 
4 *50:26 *561:B1 13.8548 
5 *50:20 *608:A2 9.24915 
*END

*D_NET *51 0.0279371
*CONN
*I *619:B1 I *D sky130_fd_sc_hd__a21o_1
*I *615:C1 I *D sky130_fd_sc_hd__o311ai_0
*I *560:B I *D sky130_fd_sc_hd__nor2_1
*I *833:C1 I *D sky130_fd_sc_hd__a211oi_1
*I *807:A1 I *D sky130_fd_sc_hd__o21ai_0
*I *794:B I *D sky130_fd_sc_hd__nand4_1
*I *802:A I *D sky130_fd_sc_hd__nand2_1
*I *749:A1 I *D sky130_fd_sc_hd__o2111ai_1
*I *594:C2 I *D sky130_fd_sc_hd__a222oi_1
*I *559:Y O *D sky130_fd_sc_hd__nand2_1
*CAP
1 *619:B1 0.000139097
2 *615:C1 0
3 *560:B 0
4 *833:C1 0.000562798
5 *807:A1 2.28536e-05
6 *794:B 0.000153826
7 *802:A 4.43518e-05
8 *749:A1 5.59718e-05
9 *594:C2 0.000793422
10 *559:Y 0
11 *51:173 0.000763659
12 *51:154 0.000855277
13 *51:140 0.00185759
14 *51:106 0.00154572
15 *51:81 0.0013193
16 *51:70 0.00143275
17 *51:41 0.00194536
18 *51:10 0.00163012
19 *51:6 0.000508059
20 *594:C2 *594:A1 6.56438e-05
21 *594:C2 *614:A2 1.79239e-05
22 *594:C2 *749:C1 0
23 *594:C2 *797:A2 0.000790852
24 *594:C2 *867:A2 5.65864e-05
25 *594:C2 *81:14 0.000110881
26 *594:C2 *81:38 3.85446e-05
27 *594:C2 *81:66 0.000185563
28 *594:C2 *407:23 0.000406982
29 *594:C2 *457:105 8.85178e-05
30 *594:C2 *457:115 5.79479e-06
31 *619:B1 *623:B1 3.82228e-05
32 *619:B1 *713:A_N 1.18245e-05
33 *619:B1 *823:A1 0.000113104
34 *619:B1 *59:28 0.000139257
35 *619:B1 *86:10 1.27831e-06
36 *749:A1 *749:C1 0.000168372
37 *794:B *794:A 7.60405e-05
38 *794:B *794:D 1.07248e-05
39 *794:B *796:C 8.02384e-05
40 *794:B *68:36 1.75816e-05
41 *794:B *126:103 7.59432e-05
42 *794:B *263:54 3.01917e-05
43 *802:A *204:52 0.000114584
44 *807:A1 *807:A2 2.99287e-05
45 *807:A1 *807:B1 0.000114584
46 *833:C1 *804:A 7.18683e-06
47 *833:C1 *807:A2 1.05106e-05
48 *833:C1 *807:B1 3.12608e-05
49 *833:C1 *810:A2 2.36617e-05
50 *833:C1 *828:A1 0.000230324
51 *833:C1 *828:B1 0.000165521
52 *833:C1 *443:23 0.000877093
53 *51:10 *559:A 5.75169e-05
54 *51:41 *749:C1 0
55 *51:41 *749:D1 0.000295573
56 *51:41 *797:A2 0.000534983
57 *51:41 *56:296 0.000454267
58 *51:41 *237:34 0.000111666
59 *51:70 *743:B1 0.000118169
60 *51:70 *797:A1 0.000545655
61 *51:70 *797:A2 3.94395e-05
62 *51:70 *800:A1 8.4857e-05
63 *51:70 *803:B1 6.36477e-05
64 *51:70 *803:C1 4.5726e-05
65 *51:70 *56:296 9.81454e-05
66 *51:70 *56:314 0.000156076
67 *51:70 *56:342 0.0002513
68 *51:70 *70:48 5.60804e-05
69 *51:70 *70:99 2.68538e-06
70 *51:70 *138:47 5.64215e-05
71 *51:70 *168:85 5.9765e-05
72 *51:70 *204:52 9.65752e-06
73 *51:70 *258:8 1.8063e-05
74 *51:81 *821:A2 0.000492245
75 *51:81 *204:52 0.000111802
76 *51:106 *578:B 5.66868e-06
77 *51:106 *580:A1 0.000183479
78 *51:106 *810:A2 4.34481e-05
79 *51:106 *825:A1 0.000298399
80 *51:106 *57:248 0.000142309
81 *51:106 *68:36 9.20196e-05
82 *51:106 *126:86 0
83 *51:106 *126:103 0.000338077
84 *51:106 *218:54 5.8824e-05
85 *51:106 *263:54 0
86 *51:106 *453:253 0.000393153
87 *51:106 *455:298 0.000383444
88 *51:140 *559:A 2.37225e-05
89 *51:140 *705:A3 6.36155e-05
90 *51:140 *457:76 0
91 *51:140 *457:82 0
92 *51:154 *519:B 3.00174e-06
93 *51:154 *520:B 3.87022e-06
94 *51:154 *555:B1_N 0.000109421
95 *51:154 *558:A2 1.88563e-05
96 *51:154 *560:A 4.65954e-06
97 *51:154 *607:C 8.36586e-06
98 *51:154 *704:A2 0.000343716
99 *51:154 *704:B1 0
100 *51:154 *705:A3 0.000647489
101 *51:154 *59:177 6.47083e-05
102 *51:154 *59:196 2.29454e-05
103 *51:154 *95:89 0.000109421
104 *51:154 *98:12 6.46487e-05
105 *51:154 *393:22 1.88563e-05
106 *51:154 *405:23 0.000104719
107 *51:154 *455:447 2.31787e-05
108 *51:173 *558:A2 1.68623e-05
109 *51:173 *614:A2 3.58157e-05
110 *51:173 *705:A3 8.72115e-06
111 *51:173 *823:A1 9.12416e-06
112 *51:173 *59:28 6.44185e-05
113 *51:173 *59:32 7.26606e-05
114 *51:173 *86:10 2.27901e-06
115 *51:173 *95:89 3.29116e-05
116 *51:173 *98:12 1.73748e-05
117 *539:B1 *51:154 4.7203e-05
118 *558:A1 *51:154 6.24914e-06
119 *619:A1 *619:B1 3.82228e-05
120 *664:B2 *594:C2 1.21305e-05
121 *669:B *749:A1 0.000109421
122 *712:A1 *51:70 4.08597e-05
123 *805:A2 *833:C1 0.000532209
124 *828:A2 *833:C1 0.000111135
125 *30:243 *51:10 9.20744e-05
126 *30:243 *51:140 4.34109e-05
127 *32:16 *833:C1 0.000108465
128 *33:50 *51:140 4.27952e-05
129 *37:147 *51:70 0.000220203
130 *37:179 *51:70 1.4581e-05
131 *37:214 *51:70 7.72394e-06
132 *37:270 *749:A1 5.89512e-05
133 *38:88 *594:C2 0
134 *38:288 *51:106 0.000136483
135 *40:178 *51:106 4.78577e-05
136 *44:18 *51:154 0.000283777
137 *44:50 *51:154 0.000591794
138 *44:322 *51:154 4.28054e-05
139 *48:67 *594:C2 8.59601e-05
*RES
1 *559:Y *51:6 13.7491 
2 *51:6 *51:10 6.23891 
3 *51:10 *594:C2 29.0269 
4 *51:10 *51:41 2.32796 
5 *51:41 *749:A1 19.605 
6 *51:41 *51:70 32.2395 
7 *51:70 *802:A 10.5271 
8 *51:70 *51:81 10.7694 
9 *51:81 *794:B 18.4953 
10 *51:81 *51:106 43.6887 
11 *51:106 *807:A1 10.5271 
12 *51:106 *833:C1 41.9588 
13 *51:6 *51:140 9.11112 
14 *51:140 *51:154 43.3874 
15 *51:154 *560:B 9.24915 
16 *51:140 *51:173 20.2525 
17 *51:173 *615:C1 13.7491 
18 *51:173 *619:B1 18.1049 
*END

*D_NET *52 0.000464095
*CONN
*I *561:B2 I *D sky130_fd_sc_hd__a221o_1
*I *560:Y O *D sky130_fd_sc_hd__nor2_1
*CAP
1 *561:B2 0.000137379
2 *560:Y 0.000137379
3 *561:B2 *501:B 2.68489e-05
4 *561:B2 *59:177 6.64392e-05
5 *561:B2 *59:196 8.13433e-05
6 *561:B1 *561:B2 1.47046e-05
*RES
1 *560:Y *561:B2 30.6438 
*END

*D_NET *53 0.000613582
*CONN
*I *562:C I *D sky130_fd_sc_hd__nand3_1
*I *561:X O *D sky130_fd_sc_hd__a221o_1
*CAP
1 *562:C 0.000201916
2 *561:X 0.000201916
3 *562:C *499:B 3.18679e-05
4 *562:C *57:132 0.000122098
5 *562:C *57:160 2.6046e-05
6 *562:C *59:203 1.21461e-06
7 *562:C *59:216 2.32967e-05
8 *562:C *461:46 5.22654e-06
*RES
1 *561:X *562:C 31.9934 
*END

*D_NET *54 0.00083107
*CONN
*I *563:A2 I *D sky130_fd_sc_hd__a21oi_1
*I *562:Y O *D sky130_fd_sc_hd__nand3_1
*CAP
1 *563:A2 0.000154857
2 *562:Y 0.000154857
3 *563:A2 exp_out[3] 3.20407e-05
4 *563:A2 *533:A_N 6.4309e-05
5 *563:A2 *562:A 0.000255643
6 *563:A2 *599:A 4.51709e-05
7 *563:A2 *57:160 0.000124192
*RES
1 *562:Y *563:A2 33.4828 
*END

*D_NET *55 0.000476782
*CONN
*I *612:A1 I *D sky130_fd_sc_hd__a31oi_1
*I *564:Y O *D sky130_fd_sc_hd__nand2b_1
*CAP
1 *612:A1 0.000135106
2 *564:Y 0.000135106
3 *612:A1 *595:B 4.58003e-05
4 *612:A1 *59:20 0.000130777
5 *612:A1 *86:10 0
6 *920:D *612:A1 2.99929e-05
*RES
1 *564:Y *612:A1 31.0235 
*END

*D_NET *56 0.0805829
*CONN
*I *608:A1 I *D sky130_fd_sc_hd__a21oi_1
*I *703:A1 I *D sky130_fd_sc_hd__mux2i_1
*I *822:B I *D sky130_fd_sc_hd__nand2_1
*I *498:B I *D sky130_fd_sc_hd__nand3_2
*I *567:A I *D sky130_fd_sc_hd__nor2_1
*I *620:A I *D sky130_fd_sc_hd__nor2b_1
*I *559:A I *D sky130_fd_sc_hd__nand2_1
*I *669:A_N I *D sky130_fd_sc_hd__nand2b_1
*I *824:A1 I *D sky130_fd_sc_hd__a2111oi_0
*I *534:A I *D sky130_fd_sc_hd__inv_2
*I *528:A1 I *D sky130_fd_sc_hd__a21oi_1
*I *854:A1 I *D sky130_fd_sc_hd__o21ai_0
*I *553:A1 I *D sky130_fd_sc_hd__a31oi_1
*I *770:A1 I *D sky130_fd_sc_hd__a221oi_1
*I *769:B1 I *D sky130_fd_sc_hd__a31oi_1
*I *826:A1 I *D sky130_fd_sc_hd__o211ai_1
*I *825:B2 I *D sky130_fd_sc_hd__o22ai_1
*I *745:A I *D sky130_fd_sc_hd__nor2b_1
*I *679:B I *D sky130_fd_sc_hd__nand2_1
*I *490:B I *D sky130_fd_sc_hd__nand2_2
*I *581:A_N I *D sky130_fd_sc_hd__nand2b_2
*I *577:B I *D sky130_fd_sc_hd__nand2b_1
*I *734:B_N I *D sky130_fd_sc_hd__nor2b_1
*I *751:B I *D sky130_fd_sc_hd__nor2_1
*I *878:B1 I *D sky130_fd_sc_hd__o21ai_1
*I *799:A1 I *D sky130_fd_sc_hd__o21ai_0
*I *788:B I *D sky130_fd_sc_hd__nor3_1
*I *829:A2 I *D sky130_fd_sc_hd__o21ai_0
*I *738:C1 I *D sky130_fd_sc_hd__o211ai_1
*I *871:A1 I *D sky130_fd_sc_hd__o221ai_1
*I *711:A I *D sky130_fd_sc_hd__nor2_1
*I *839:B1 I *D sky130_fd_sc_hd__o21ai_0
*I *697:B I *D sky130_fd_sc_hd__nor2_1
*I *686:B I *D sky130_fd_sc_hd__nand2_1
*I *573:A I *D sky130_fd_sc_hd__nor2_1
*I *589:B I *D sky130_fd_sc_hd__nor2_1
*I *683:A1 I *D sky130_fd_sc_hd__a21oi_1
*I *513:B I *D sky130_fd_sc_hd__and2_0
*I *690:B I *D sky130_fd_sc_hd__nor3_1
*I *613:A I *D sky130_fd_sc_hd__nor3b_1
*I *549:B I *D sky130_fd_sc_hd__or2_1
*I *688:B_N I *D sky130_fd_sc_hd__nor2b_1
*I *604:B I *D sky130_fd_sc_hd__nand2b_1
*I *664:A1 I *D sky130_fd_sc_hd__o22ai_1
*I *655:C_N I *D sky130_fd_sc_hd__nor3b_1
*I *571:A I *D sky130_fd_sc_hd__and2_1
*I *646:A2 I *D sky130_fd_sc_hd__a21oi_1
*I *649:A1 I *D sky130_fd_sc_hd__a21oi_1
*I *643:A1 I *D sky130_fd_sc_hd__a21oi_1
*I *601:A I *D sky130_fd_sc_hd__nand2_1
*I *892:A0 I *D sky130_fd_sc_hd__mux2i_1
*I *565:X O *D sky130_fd_sc_hd__buf_4
*CAP
1 *608:A1 0.000118611
2 *703:A1 0
3 *822:B 0.000702591
4 *498:B 0.000322222
5 *567:A 0
6 *620:A 8.51403e-05
7 *559:A 0.000213788
8 *669:A_N 0.000152174
9 *824:A1 0.00050605
10 *534:A 0
11 *528:A1 0.000152908
12 *854:A1 1.16591e-05
13 *553:A1 0.000161841
14 *770:A1 3.809e-05
15 *769:B1 0.000286627
16 *826:A1 0.000234879
17 *825:B2 0
18 *745:A 0.000181976
19 *679:B 3.17189e-05
20 *490:B 0
21 *581:A_N 0
22 *577:B 8.49103e-05
23 *734:B_N 1.47608e-05
24 *751:B 1.30387e-05
25 *878:B1 0.000271112
26 *799:A1 0
27 *788:B 0.000190584
28 *829:A2 2.3034e-05
29 *738:C1 0
30 *871:A1 0.000278149
31 *711:A 5.81635e-05
32 *839:B1 0
33 *697:B 9.28361e-05
34 *686:B 0.000514311
35 *573:A 0.000145806
36 *589:B 9.04584e-05
37 *683:A1 9.72073e-05
38 *513:B 4.01694e-05
39 *690:B 0
40 *613:A 0.00020499
41 *549:B 0.000258258
42 *688:B_N 5.99218e-05
43 *604:B 2.49453e-05
44 *664:A1 0
45 *655:C_N 0
46 *571:A 0
47 *646:A2 0
48 *649:A1 0.000149072
49 *643:A1 7.47885e-05
50 *601:A 3.07292e-05
51 *892:A0 0.000473606
52 *565:X 0
53 *56:758 0.000769835
54 *56:737 0.000631562
55 *56:729 0.000656935
56 *56:626 0.0001735
57 *56:624 0.00102009
58 *56:612 0.000949862
59 *56:608 0.000729119
60 *56:588 0.000408416
61 *56:584 0.00067317
62 *56:559 0.000772444
63 *56:550 0.000409916
64 *56:511 0.000293569
65 *56:503 0.000291384
66 *56:501 0.000231007
67 *56:458 0.00028415
68 *56:436 0.000448797
69 *56:430 0.000345935
70 *56:428 0.000651406
71 *56:422 0.00135209
72 *56:416 0.00142685
73 *56:403 0.000690969
74 *56:397 0.000783534
75 *56:380 0.000661328
76 *56:344 0.000433981
77 *56:342 0.000974731
78 *56:316 0.000106237
79 *56:314 0.00116437
80 *56:296 0.0014727
81 *56:286 0.000965984
82 *56:264 0.000660117
83 *56:215 0.000355095
84 *56:189 0.00053677
85 *56:181 0.000497557
86 *56:179 0.000255812
87 *56:177 0.000309955
88 *56:164 0.000335922
89 *56:156 0.000426149
90 *56:154 0.000508816
91 *56:152 0.000453078
92 *56:141 0.000774378
93 *56:101 0.000333755
94 *56:99 0.000606959
95 *56:86 0.00103638
96 *56:80 0.000548417
97 *56:76 0.00183654
98 *56:62 0.00233124
99 *56:40 0.00173937
100 *56:34 0.000923024
101 *56:23 0.000520562
102 *56:4 0.000963439
103 *498:B *486:A 0.000135617
104 *498:B *609:A 2.76098e-05
105 *498:B *704:A2 4.69725e-06
106 *498:B *405:8 2.16355e-05
107 *498:B *430:29 2.10768e-05
108 *513:B *419:28 5.04829e-06
109 *528:A1 *528:A2 3.75217e-05
110 *528:A1 *59:233 0.000197269
111 *528:A1 *405:44 0.000197935
112 *549:B *165:16 6.1438e-05
113 *549:B *177:8 5.05271e-05
114 *549:B *455:141 6.08467e-05
115 *553:A1 *528:A2 3.67708e-05
116 *553:A1 *854:A2 4.49295e-05
117 *553:A1 *59:227 0.000172569
118 *553:A1 *310:16 7.13573e-05
119 *553:A1 *432:8 2.66001e-05
120 *559:A *583:A1 2.57847e-05
121 *559:A *596:B1 0
122 *559:A *674:A2 0.000278034
123 *573:A *694:A 0.00040456
124 *573:A *83:53 3.31745e-05
125 *589:B *693:B 8.82627e-05
126 *589:B *757:A2 2.99733e-05
127 *589:B *80:10 1.78942e-05
128 *601:A *524:B 1.75816e-05
129 *601:A *611:A2 5.23435e-05
130 *608:A1 *602:A1 9.0951e-05
131 *608:A1 *609:C 0.000110458
132 *608:A1 *611:B1 7.92757e-06
133 *608:A1 *59:24 2.77564e-05
134 *608:A1 *59:26 7.91094e-05
135 *608:A1 *422:158 1.86178e-05
136 *608:A1 *430:29 5.481e-05
137 *613:A *513:A 1.61262e-05
138 *613:A *613:C_N 6.64392e-05
139 *613:A *236:20 0
140 *613:A *454:88 0
141 *620:A *575:B1 0
142 *620:A *61:24 4.80635e-06
143 *620:A *110:10 5.04829e-06
144 *643:A1 *643:A2 6.64392e-05
145 *643:A1 *644:A2 1.37189e-05
146 *649:A1 *136:8 8.62321e-06
147 *649:A1 *138:20 7.09666e-06
148 *649:A1 *455:66 1.07248e-05
149 *649:A1 *457:127 0.000160617
150 *669:A_N *749:C1 0.000108694
151 *669:A_N *797:A1 2.09205e-05
152 *669:A_N *797:A2 7.16541e-06
153 *669:A_N *62:115 0
154 *679:B *884:C_N 5.04829e-06
155 *679:B *168:14 2.16355e-05
156 *683:A1 *683:A2 4.97617e-05
157 *683:A1 *683:B1 6.08467e-05
158 *686:B *687:A2 0.000160617
159 *686:B *694:A 0.000160378
160 *686:B *83:53 0.000183715
161 *686:B *189:14 8.34394e-05
162 *711:A *712:A2 1.13285e-05
163 *711:A *736:A2 1.1957e-05
164 *734:B_N *771:B 6.08467e-05
165 *734:B_N *222:10 6.08467e-05
166 *745:A *233:8 4.15559e-05
167 *751:B *884:C_N 4.66492e-05
168 *769:B1 *769:A3 8.39263e-05
169 *769:B1 *770:B2 9.90912e-05
170 *770:A1 *770:A2 5.83326e-05
171 *770:A1 *770:B2 6.20258e-06
172 *788:B *788:C 0.000188688
173 *788:B *790:A2 0
174 *788:B *875:A 3.39453e-05
175 *788:B *880:A1 6.61829e-06
176 *788:B *880:A2 0
177 *788:B *263:20 8.52283e-05
178 *788:B *277:12 0
179 *822:B *822:A 2.51444e-05
180 *822:B *823:A2 6.51628e-05
181 *822:B *57:97 7.28441e-05
182 *822:B *422:139 7.74231e-05
183 *822:B *422:150 8.91097e-05
184 *822:B *431:12 0.000424551
185 *822:B *454:368 0.000105199
186 *824:A1 *785:C1 6.11074e-05
187 *824:A1 *786:A2 0
188 *824:A1 *824:B1 0.000324746
189 *824:A1 *835:A1 2.20702e-05
190 *824:A1 *57:220 0
191 *824:A1 *453:227 2.01274e-05
192 *824:A1 *453:243 0.00019517
193 *824:A1 *455:383 6.09513e-05
194 *826:A1 *760:B 7.13655e-06
195 *826:A1 *767:A 0.00020502
196 *826:A1 *826:C1 0
197 *826:A1 *218:84 0.000110477
198 *854:A1 *824:B1 1.55025e-05
199 *854:A1 *854:A2 6.3657e-05
200 *854:A1 *310:16 1.37695e-05
201 *871:A1 *724:C1 2.10465e-05
202 *871:A1 *870:B 0.000107496
203 *871:A1 *95:143 9.12416e-06
204 *871:A1 *95:149 0.00010197
205 *871:A1 *204:69 0.000141662
206 *871:A1 *454:419 0.000107496
207 *878:B1 *640:A2 0
208 *878:B1 *878:A2 0.000253745
209 *878:B1 *884:B 0.000122378
210 *878:B1 *884:C_N 0.0002748
211 *878:B1 *885:A2 0.000113254
212 *878:B1 *885:B1 4.49519e-05
213 *878:B1 *885:C1 9.20447e-05
214 *878:B1 *244:14 5.94319e-06
215 *892:A0 *892:A1 0.000112361
216 *892:A0 *893:B 6.46815e-05
217 *892:A0 *453:14 0
218 *56:23 *524:B 3.62689e-05
219 *56:23 *611:A2 0.00011311
220 *56:23 *612:A3 0.000315842
221 *56:23 *59:20 0.000108712
222 *56:23 *88:12 2.91161e-05
223 *56:23 *453:14 2.95757e-05
224 *56:23 *453:30 0.000224381
225 *56:23 *453:62 6.08467e-05
226 *56:40 *567:B 6.2196e-05
227 *56:40 *602:A1 0.000304881
228 *56:40 *435:20 0
229 *56:40 *453:30 0
230 *56:62 *570:A2 1.5714e-05
231 *56:62 *570:B1 6.12003e-05
232 *56:62 *626:B1 9.43449e-05
233 *56:62 *660:B1 0.00016607
234 *56:62 *871:A2 1.94501e-05
235 *56:62 *57:42 0
236 *56:62 *57:52 1.95149e-05
237 *56:62 *61:24 0.000207129
238 *56:62 *110:12 1.5254e-05
239 *56:62 *435:20 0
240 *56:62 *453:30 0.000115342
241 *56:76 *660:B1 6.89765e-05
242 *56:80 *457:228 1.91246e-05
243 *56:86 *642:B1 0.000114563
244 *56:86 *643:A2 8.60778e-05
245 *56:86 *645:B 0
246 *56:86 *656:A 1.79542e-05
247 *56:86 *867:A2 0.000152131
248 *56:86 *83:12 5.66134e-05
249 *56:86 *146:20 0.00018596
250 *56:99 *643:A2 4.81452e-05
251 *56:99 *62:35 0.000192334
252 *56:101 *136:8 8.21849e-06
253 *56:101 *139:12 7.77309e-06
254 *56:101 *455:66 0.000167579
255 *56:141 *675:A2 2.44579e-05
256 *56:141 *749:C1 0.000558396
257 *56:141 *81:48 0.000756083
258 *56:154 *674:A2 0.000331032
259 *56:164 *693:D 0.000143234
260 *56:164 *131:20 1.90225e-05
261 *56:177 *685:D1 6.27718e-05
262 *56:177 *131:20 1.8676e-05
263 *56:177 *419:28 1.29948e-05
264 *56:177 *454:276 7.28994e-06
265 *56:179 *454:88 3.82939e-05
266 *56:179 *455:94 3.33173e-06
267 *56:181 *131:20 0
268 *56:181 *454:88 5.75084e-05
269 *56:181 *455:94 9.17333e-06
270 *56:189 *689:A2 7.74734e-05
271 *56:189 *747:A 0.000351491
272 *56:189 *97:33 6.88205e-06
273 *56:189 *138:20 7.60871e-05
274 *56:189 *454:88 7.08723e-06
275 *56:215 *748:C 0.00036002
276 *56:286 *674:A2 4.44823e-05
277 *56:296 *749:C1 0.00018013
278 *56:296 *749:D1 0.000291569
279 *56:314 *744:B 3.00356e-05
280 *56:314 *749:C1 9.668e-05
281 *56:314 *798:A2 1.7284e-05
282 *56:314 *803:A2 1.96948e-05
283 *56:314 *838:A2 0.000107025
284 *56:314 *841:B1 1.7883e-05
285 *56:314 *62:115 0
286 *56:314 *267:49 3.88213e-05
287 *56:314 *385:101 4.23622e-05
288 *56:342 *735:A2 6.02365e-05
289 *56:342 *736:A1 5.03114e-05
290 *56:342 *736:B1 3.10559e-05
291 *56:342 *743:B1 6.55651e-05
292 *56:342 *845:A2 9.98296e-05
293 *56:342 *95:153 0
294 *56:342 *204:69 0.000179991
295 *56:380 *737:A2 5.47325e-05
296 *56:380 *225:12 0.000110297
297 *56:380 *226:24 7.36104e-05
298 *56:380 *258:8 6.55896e-06
299 *56:397 *735:A1 0.000115049
300 *56:397 *872:C1 6.73706e-05
301 *56:397 *873:B1 0.000187312
302 *56:397 *397:91 0.000508624
303 *56:403 *59:323 0
304 *56:403 *453:253 1.37367e-05
305 *56:416 *819:B1 3.31736e-05
306 *56:416 *830:A1 0.000766466
307 *56:416 *830:A2 2.07365e-05
308 *56:416 *830:B2 1.43848e-05
309 *56:416 *233:25 0.000193504
310 *56:416 *233:37 1.36963e-05
311 *56:416 *317:10 0.000260325
312 *56:416 *443:23 0.000298543
313 *56:422 *679:A 0
314 *56:422 *710:A 1.98531e-06
315 *56:422 *723:A1 0
316 *56:422 *819:B1 6.4628e-05
317 *56:422 *830:A1 0.000552991
318 *56:422 *126:69 0
319 *56:428 *679:A 0
320 *56:428 *168:14 3.12194e-05
321 *56:428 *204:18 9.75548e-06
322 *56:428 *209:27 0.000117514
323 *56:428 *286:16 1.5714e-05
324 *56:430 *883:C 0.000192767
325 *56:430 *204:18 8.03393e-06
326 *56:430 *286:16 0.000206009
327 *56:436 *788:C 9.12416e-06
328 *56:436 *883:C 0.000149582
329 *56:436 *885:A2 0
330 *56:436 *286:16 0.000290668
331 *56:436 *397:16 5.37799e-06
332 *56:501 *710:A 7.86825e-06
333 *56:501 *723:A1 0.000184116
334 *56:501 *792:B2 2.52238e-05
335 *56:501 *210:14 0.000152273
336 *56:503 *723:A1 0.000159848
337 *56:503 *792:B2 6.35844e-05
338 *56:511 *723:A1 2.07325e-05
339 *56:511 *792:B2 9.12416e-06
340 *56:511 *72:90 0.000148997
341 *56:550 *805:A1 0.000148017
342 *56:550 *825:A1 0.000152808
343 *56:550 *825:A2 4.0143e-05
344 *56:550 *59:323 0
345 *56:550 *393:55 2.02231e-05
346 *56:559 *763:A2 9.12416e-06
347 *56:559 *825:A2 1.07248e-05
348 *56:559 *825:B1 0.000210961
349 *56:559 *827:A2 0.000186334
350 *56:559 *393:55 5.2504e-06
351 *56:584 *760:B 0.000240818
352 *56:584 *763:A2 4.5433e-05
353 *56:584 *827:A2 5.01835e-05
354 *56:584 *836:B2 5.4923e-06
355 *56:584 *218:84 6.25838e-06
356 *56:584 *249:34 7.15506e-05
357 *56:584 *453:243 0.000121961
358 *56:584 *454:514 0.000311094
359 *56:584 *455:342 1.9101e-05
360 *56:584 *455:353 0.00011594
361 *56:588 *769:A3 2.77625e-06
362 *56:588 *770:A2 6.08467e-05
363 *56:608 *453:243 0.000281643
364 *56:608 *455:353 0.000175394
365 *56:608 *455:383 0.000104719
366 *56:612 *852:A2 0.000404695
367 *56:612 *204:109 8.7789e-05
368 *56:624 *526:A 4.49687e-05
369 *56:624 *765:A 6.08467e-05
370 *56:624 *766:C 0.000158451
371 *56:624 *852:A1 0.000112892
372 *56:624 *852:A2 0.000321834
373 *56:624 *854:A2 1.37925e-05
374 *56:624 *860:C1 0.000112361
375 *56:624 *861:C1 6.27782e-05
376 *56:624 *59:233 8.62625e-06
377 *56:624 *59:277 0.000191468
378 *56:624 *204:109 0.000114594
379 *56:624 *310:16 0.000293754
380 *56:624 *393:47 8.70363e-05
381 *56:624 *405:44 1.64983e-05
382 *56:624 *429:10 2.55661e-06
383 *56:624 *430:35 0.00033216
384 *56:729 *602:A1 6.00916e-05
385 *56:729 *57:90 0.000247443
386 *56:737 *524:B 0.00025527
387 *56:737 *602:A1 0.000132095
388 *56:737 *609:A 0.0001355
389 *56:737 *57:90 2.32625e-05
390 *56:737 *59:26 4.9e-05
391 *56:737 *59:28 5.23435e-05
392 *56:758 *704:B2 6.08467e-05
393 *56:758 *57:90 3.95928e-05
394 *56:758 *57:97 0.000109421
395 *498:A *498:B 4.72245e-05
396 *529:C *528:A1 1.84381e-05
397 *539:A1 *498:B 6.46815e-05
398 *550:B1 *822:B 3.05511e-05
399 *554:B2 *553:A1 6.50727e-05
400 *575:A1 *56:62 1.07248e-05
401 *575:A1 *56:76 7.00991e-05
402 *577:A_N *577:B 8.23763e-05
403 *589:A *56:164 0.000170438
404 *603:A1 *822:B 0.000258128
405 *604:A_N *56:164 0.000109427
406 *653:A1 *649:A1 1.51778e-05
407 *657:A1 *56:99 0.000261237
408 *666:A *559:A 9.08436e-06
409 *666:A *56:141 5.04221e-05
410 *666:A *56:152 1.1718e-05
411 *666:A *56:154 6.403e-05
412 *666:A *56:286 1.53621e-05
413 *669:B *669:A_N 8.13369e-05
414 *682:A *56:177 3.20407e-05
415 *682:A *56:179 1.94364e-05
416 *692:B2 *513:B 0.000113968
417 *717:B_N *56:612 0.000107496
418 *729:B *56:342 0.000298705
419 *730:A_N *56:397 6.50586e-05
420 *730:B *56:397 0.000224275
421 *738:A1 *56:397 0.000207883
422 *797:B1 *669:A_N 6.08467e-05
423 *838:B1 *56:314 5.60804e-05
424 *870:A *822:B 5.04829e-06
425 *872:B2 *56:397 1.65872e-05
426 *920:CLK *892:A0 0.000517172
427 *20:70 *56:152 4.45999e-05
428 *20:124 *892:A0 0.000100255
429 *26:8 *56:612 6.08467e-05
430 *26:24 *697:B 0.000176119
431 *26:24 *871:A1 0.000122844
432 *28:54 *683:A1 6.08467e-05
433 *28:54 *56:164 0.000160415
434 *28:54 *56:177 0.000219578
435 *28:54 *56:179 2.99506e-05
436 *28:60 *56:179 8.69672e-05
437 *28:69 *549:B 6.08467e-05
438 *30:18 *56:86 0
439 *30:54 *573:A 0.000247443
440 *30:54 *56:156 0
441 *30:54 *56:164 0
442 *30:60 *613:A 1.36691e-05
443 *30:64 *613:A 4.03662e-05
444 *30:79 *613:A 2.37299e-05
445 *30:251 *559:A 6.36477e-05
446 *30:328 *878:B1 0.000116676
447 *30:337 *751:B 6.08467e-05
448 *30:337 *878:B1 0.000207901
449 *30:349 *56:428 4.71207e-05
450 *32:16 *56:416 3.31736e-05
451 *33:27 *56:154 0
452 *37:18 *56:177 0.000139817
453 *37:52 *56:164 0
454 *37:64 *56:154 8.5492e-05
455 *37:147 *56:296 0.000182806
456 *37:147 *56:314 0.000607339
457 *37:160 *56:314 0.000124083
458 *37:160 *56:316 2.04534e-05
459 *37:160 *56:342 1.15389e-05
460 *37:173 *56:342 0.000121263
461 *37:377 *878:B1 0.000113011
462 *38:64 *56:154 0
463 *38:96 *56:86 1.19971e-05
464 *38:146 *56:141 9.47451e-05
465 *38:146 *56:152 6.53502e-05
466 *38:227 *56:342 0.000139817
467 *38:242 *56:342 3.61045e-05
468 *38:327 *56:403 6.98337e-06
469 *38:335 *56:403 9.94284e-06
470 *39:30 *56:584 0
471 *39:32 *56:624 0.000160438
472 *40:12 *56:62 0
473 *40:16 *56:737 7.28994e-06
474 *40:152 *56:550 1.04511e-05
475 *40:152 *56:559 1.87125e-05
476 *40:163 *56:550 6.14682e-06
477 *40:180 *56:380 6.36477e-05
478 *40:186 *711:A 1.41976e-05
479 *40:186 *56:344 0.000186597
480 *40:186 *56:380 0.000343836
481 *40:194 *697:B 0.000172701
482 *40:284 *549:B 0
483 *40:284 *688:B_N 9.4116e-06
484 *40:381 *56:511 0
485 *40:412 *577:B 0.000210197
486 *40:412 *56:511 0.000118166
487 *40:453 *669:A_N 9.32983e-05
488 *40:469 *669:A_N 0.000158451
489 *40:569 *498:B 7.86825e-06
490 *40:636 *56:101 0.000148144
491 *40:647 *56:99 0.000205649
492 *40:647 *56:101 0.000189206
493 *40:662 *56:99 6.68253e-06
494 *41:12 *549:B 2.1558e-06
495 *41:30 *56:314 0.000153427
496 *44:50 *822:B 3.5845e-05
497 *44:151 *56:550 0.000311501
498 *44:165 *56:403 8.81102e-05
499 *44:165 *56:422 8.28634e-05
500 *44:165 *56:550 2.95757e-05
501 *44:179 *56:422 3.39641e-05
502 *44:179 *56:428 0.000629419
503 *44:231 *56:511 0
504 *44:294 *56:584 6.9363e-05
505 *48:23 *56:99 1.94615e-05
506 *48:23 *56:101 8.94713e-05
507 *48:67 *56:76 4.20312e-06
508 *48:67 *56:141 5.62001e-05
509 *48:93 *56:154 5.80853e-05
510 *48:93 *56:156 6.67465e-05
511 *48:149 *559:A 1.69932e-05
512 *48:149 *56:154 3.82289e-06
513 *51:10 *559:A 5.75169e-05
514 *51:41 *56:296 0.000454267
515 *51:70 *56:296 9.81454e-05
516 *51:70 *56:314 0.000156076
517 *51:70 *56:342 0.0002513
518 *51:140 *559:A 2.37225e-05
*RES
1 *565:X *56:4 9.24915 
2 *56:4 *892:A0 32.1725 
3 *56:4 *56:23 20.4856 
4 *56:23 *601:A 14.7506 
5 *56:23 *56:34 4.5 
6 *56:34 *56:40 16.0628 
7 *56:40 *56:62 24.03 
8 *56:62 *56:76 7.15812 
9 *56:76 *56:80 3.7474 
10 *56:80 *56:86 18.4232 
11 *56:86 *643:A1 10.5271 
12 *56:86 *56:99 13.9837 
13 *56:99 *56:101 7.23027 
14 *56:101 *649:A1 16.5832 
15 *56:101 *646:A2 13.7491 
16 *56:99 *571:A 13.7491 
17 *56:80 *655:C_N 13.7491 
18 *56:76 *56:141 12.5481 
19 *56:141 *664:A1 9.24915 
20 *56:141 *56:152 7.0654 
21 *56:152 *56:154 9.72179 
22 *56:154 *56:156 3.493 
23 *56:156 *56:164 10.9797 
24 *56:164 *604:B 9.82786 
25 *56:164 *56:177 9.68023 
26 *56:177 *56:179 2.6625 
27 *56:179 *56:181 3.07775 
28 *56:181 *56:189 7.85448 
29 *56:189 *688:B_N 14.9583 
30 *56:189 *549:B 19.0525 
31 *56:181 *56:215 8.55102 
32 *56:215 *613:A 23.4354 
33 *56:215 *690:B 9.24915 
34 *56:179 *513:B 15.0271 
35 *56:177 *683:A1 16.1364 
36 *56:156 *589:B 16.7151 
37 *56:154 *56:264 4.5 
38 *56:264 *573:A 14.964 
39 *56:264 *686:B 22.9454 
40 *56:152 *56:286 0.793864 
41 *56:286 *56:296 9.06553 
42 *56:296 *56:314 19.5626 
43 *56:314 *56:316 0.578717 
44 *56:316 *697:B 21.7421 
45 *56:316 *839:B1 9.24915 
46 *56:314 *56:342 26.1337 
47 *56:342 *56:344 2.38721 
48 *56:344 *711:A 10.9612 
49 *56:344 *871:A1 26.5789 
50 *56:342 *56:380 17.5139 
51 *56:380 *738:C1 9.24915 
52 *56:380 *56:397 18.3651 
53 *56:397 *56:403 7.47064 
54 *56:403 *829:A2 9.82786 
55 *56:403 *56:416 25.6136 
56 *56:416 *56:422 13.9272 
57 *56:422 *56:428 5.2506 
58 *56:428 *56:430 3.90826 
59 *56:430 *56:436 7.30355 
60 *56:436 *788:B 19.9535 
61 *56:436 *799:A1 13.7491 
62 *56:430 *56:458 4.5 
63 *56:458 *878:B1 30.7793 
64 *56:458 *751:B 9.97254 
65 *56:428 *734:B_N 14.4725 
66 *56:422 *56:501 7.48467 
67 *56:501 *56:503 3.07775 
68 *56:503 *56:511 10.4191 
69 *56:511 *577:B 12.3718 
70 *56:511 *581:A_N 9.24915 
71 *56:503 *490:B 13.7491 
72 *56:501 *679:B 14.4725 
73 *56:416 *745:A 17.8002 
74 *56:397 *56:550 10.9675 
75 *56:550 *825:B2 13.7491 
76 *56:550 *56:559 4.32351 
77 *56:559 *826:A1 27.3836 
78 *56:559 *56:584 11.4458 
79 *56:584 *56:588 5.778 
80 *56:588 *769:B1 14.8675 
81 *56:588 *770:A1 10.6477 
82 *56:584 *56:608 5.56926 
83 *56:608 *56:612 9.10562 
84 *56:612 *56:624 31.6666 
85 *56:624 *56:626 4.5 
86 *56:626 *553:A1 23.2891 
87 *56:626 *854:A1 9.97254 
88 *56:624 *528:A1 19.5141 
89 *56:612 *534:A 9.24915 
90 *56:608 *824:A1 24.918 
91 *56:296 *669:A_N 19.1458 
92 *56:286 *559:A 20.6647 
93 *56:62 *620:A 15.6059 
94 *56:40 *567:A 13.7491 
95 *56:34 *56:729 9.10562 
96 *56:729 *56:737 12.6255 
97 *56:737 *498:B 26.5889 
98 *56:737 *56:758 2.38721 
99 *56:758 *822:B 45.1724 
100 *56:758 *703:A1 9.24915 
101 *56:729 *608:A1 17.829 
*END

*D_NET *57 0.0364238
*CONN
*I *834:A1 I *D sky130_fd_sc_hd__a211o_1
*I *623:A1 I *D sky130_fd_sc_hd__a31oi_1
*I *824:C1 I *D sky130_fd_sc_hd__a2111oi_0
*I *848:A1 I *D sky130_fd_sc_hd__a21oi_1
*I *724:B1 I *D sky130_fd_sc_hd__o211a_1
*I *873:C1 I *D sky130_fd_sc_hd__o311a_1
*I *580:A1 I *D sky130_fd_sc_hd__o21ai_0
*I *845:B1 I *D sky130_fd_sc_hd__o21ai_0
*I *770:C1 I *D sky130_fd_sc_hd__a221oi_1
*I *741:A I *D sky130_fd_sc_hd__nor2_1
*I *851:A2 I *D sky130_fd_sc_hd__o31a_1
*I *493:A1 I *D sky130_fd_sc_hd__o21ai_0
*I *501:A I *D sky130_fd_sc_hd__nand3_1
*I *528:B1 I *D sky130_fd_sc_hd__a21oi_1
*I *551:B1 I *D sky130_fd_sc_hd__o21ai_0
*I *519:A I *D sky130_fd_sc_hd__nand2_1
*I *498:C I *D sky130_fd_sc_hd__nand3_2
*I *537:A2 I *D sky130_fd_sc_hd__o21a_1
*I *703:A0 I *D sky130_fd_sc_hd__mux2i_1
*I *569:B1 I *D sky130_fd_sc_hd__o21ai_0
*I *890:A0 I *D sky130_fd_sc_hd__mux2i_1
*I *655:B I *D sky130_fd_sc_hd__nor3b_1
*I *590:A I *D sky130_fd_sc_hd__nor2b_1
*I *566:X O *D sky130_fd_sc_hd__buf_4
*CAP
1 *834:A1 0.000135963
2 *623:A1 0.000151531
3 *824:C1 0.000189278
4 *848:A1 0
5 *724:B1 0.00034044
6 *873:C1 0
7 *580:A1 0.00029744
8 *845:B1 0
9 *770:C1 4.13011e-05
10 *741:A 0
11 *851:A2 2.81424e-05
12 *493:A1 0
13 *501:A 5.70642e-05
14 *528:B1 6.81904e-05
15 *551:B1 1.03162e-05
16 *519:A 0
17 *498:C 0
18 *537:A2 0.000177977
19 *703:A0 0
20 *569:B1 4.07168e-05
21 *890:A0 0.000876022
22 *655:B 0
23 *590:A 0.000297553
24 *566:X 0.000164766
25 *57:274 0.000485799
26 *57:248 0.000450693
27 *57:237 0.000335995
28 *57:231 0.0005115
29 *57:220 0.000766581
30 *57:212 0.000668049
31 *57:205 0.000897759
32 *57:178 0.0012754
33 *57:160 0.000182458
34 *57:140 0.000188658
35 *57:132 0.000444888
36 *57:119 0.0003231
37 *57:110 0.000178896
38 *57:108 0.000487491
39 *57:97 0.000346896
40 *57:90 0.00124841
41 *57:52 0.00100133
42 *57:48 0.00121892
43 *57:42 0.000842201
44 *57:14 0.000464892
45 *57:10 0.000967936
46 *501:A *501:C 0.000160942
47 *528:B1 *528:A2 6.50727e-05
48 *528:B1 *902:B1_N 3.76697e-05
49 *528:B1 *405:44 0.000113002
50 *537:A2 *537:A1 6.08467e-05
51 *537:A2 *537:B1 2.16355e-05
52 *537:A2 *431:12 0.000200794
53 *569:B1 *457:37 5.0118e-05
54 *580:A1 *578:B 6.08467e-05
55 *580:A1 *580:A2 0.000171036
56 *580:A1 *737:A2 1.37189e-05
57 *580:A1 *844:A2 3.20069e-06
58 *580:A1 *69:6 1.88014e-05
59 *580:A1 *263:54 3.5534e-05
60 *580:A1 *455:298 1.5613e-05
61 *590:A *590:B_N 7.50803e-05
62 *590:A *655:A 0.000117181
63 *590:A *702:A2 7.67734e-06
64 *590:A *457:115 1.41976e-05
65 *623:A1 *623:A2 3.99086e-06
66 *623:A1 *623:A3 2.16355e-05
67 *623:A1 *623:B1 1.47978e-05
68 *623:A1 *626:B1 4.94979e-05
69 *623:A1 *454:330 2.11728e-05
70 *724:B1 *724:A1 2.58757e-05
71 *724:B1 *724:C1 0.000110458
72 *724:B1 *825:A2 1.00766e-05
73 *724:B1 *847:A1 7.90842e-05
74 *724:B1 *95:149 0.000163571
75 *724:B1 *212:30 3.5063e-05
76 *724:B1 *226:24 2.33726e-05
77 *824:C1 *824:B1 0.000405499
78 *824:C1 *824:D1 0.000317693
79 *824:C1 *834:C1 9.82896e-06
80 *824:C1 *835:A1 6.50586e-05
81 *834:A1 *834:A2 2.20294e-05
82 *834:A1 *834:B1 4.65954e-06
83 *834:A1 *834:C1 0.000746671
84 *834:A1 *835:A1 0.000519481
85 *834:A1 *835:B1 7.98425e-06
86 *851:A2 *851:B1 0
87 *851:A2 *852:A1 1.91246e-05
88 *851:A2 *454:599 3.12828e-05
89 *890:A0 exp_out[4] 0.000439687
90 *890:A0 *887:A 0
91 *890:A0 *894:A0 0.000233938
92 *890:A0 *895:B 2.97556e-05
93 *890:A0 *896:A1 0.000350332
94 *890:A0 *374:14 0
95 *890:A0 *457:37 0.000116
96 *57:10 *538:A 0.000164815
97 *57:10 *454:10 0.000150147
98 *57:10 *454:18 2.95757e-05
99 *57:10 *454:34 6.08467e-05
100 *57:14 *656:B 6.94804e-05
101 *57:14 *702:A2 4.17467e-05
102 *57:14 *146:20 6.53364e-05
103 *57:42 *605:A 2.58757e-05
104 *57:42 *620:B_N 0
105 *57:42 *660:B1 0
106 *57:42 *797:A2 0
107 *57:42 *149:14 0.000209341
108 *57:42 *354:10 0.00010717
109 *57:42 *435:22 0
110 *57:42 *446:18 9.15934e-05
111 *57:42 *454:10 0.000520288
112 *57:42 *454:330 7.76179e-06
113 *57:48 *435:22 0
114 *57:52 *570:B1 2.81678e-06
115 *57:52 *435:22 0
116 *57:90 *602:A1 6.63489e-05
117 *57:90 *609:A 0.000439942
118 *57:90 *623:B1 0.000271058
119 *57:90 *624:C 8.21761e-06
120 *57:90 *88:12 0.000522775
121 *57:90 *407:10 0.000519284
122 *57:110 *520:A 0.000168334
123 *57:119 *491:B 1.38112e-06
124 *57:119 *520:A 0.00017842
125 *57:132 *491:B 4.75721e-06
126 *57:132 *499:B 0
127 *57:132 *520:A 0.000147614
128 *57:132 *554:C1 3.39793e-05
129 *57:132 *398:19 1.99536e-05
130 *57:140 *902:B1_N 0.000239475
131 *57:140 *405:44 0.000142309
132 *57:140 *461:36 0
133 *57:160 *562:A 1.5254e-05
134 *57:160 *461:46 4.3496e-05
135 *57:178 *537:B1 2.2894e-05
136 *57:178 *101:34 1.71028e-05
137 *57:178 *237:34 2.04181e-05
138 *57:178 *454:396 0.000507756
139 *57:178 *455:439 5.31632e-06
140 *57:178 *455:443 3.82614e-05
141 *57:205 *824:B1 0.000365305
142 *57:205 *834:C1 0.000106174
143 *57:205 *861:B2 5.76799e-05
144 *57:205 *861:C1 1.86674e-05
145 *57:205 *864:A2 0.000480395
146 *57:205 *59:265 0.000158044
147 *57:205 *237:34 0.000501056
148 *57:205 *385:26 0.0002646
149 *57:205 *385:80 0.000407262
150 *57:212 *824:B1 0.000420272
151 *57:212 *824:D1 6.50586e-05
152 *57:212 *834:C1 8.66329e-05
153 *57:220 *237:34 5.43832e-05
154 *57:220 *453:227 0.000126889
155 *57:231 *258:8 0.000350508
156 *57:237 *845:A2 1.65872e-05
157 *57:237 *258:8 0.000291053
158 *57:248 *844:A2 6.7536e-05
159 *57:248 *455:298 1.63256e-05
160 *57:274 *848:B1 0.000205101
161 *539:A1 *57:119 9.81959e-05
162 *539:A2 *57:110 1.22289e-05
163 *539:A2 *57:119 2.99567e-05
164 *551:A2 *57:119 0
165 *562:B *57:132 0.000122083
166 *562:B *57:160 3.31882e-05
167 *562:C *57:132 0.000122098
168 *562:C *57:160 2.6046e-05
169 *563:A2 *57:160 0.000124192
170 *578:A *580:A1 6.92705e-05
171 *630:A2 *590:A 3.46096e-05
172 *717:B_N *57:220 3.86704e-05
173 *729:B *57:237 0.000118017
174 *732:A1 *580:A1 6.36477e-05
175 *738:A1 *580:A1 0.000158451
176 *822:B *57:97 7.28441e-05
177 *824:A1 *57:220 0
178 *845:A1 *57:237 6.36477e-05
179 *895:A *890:A0 5.0715e-05
180 *919:D *57:42 0.000148002
181 *928:D *890:A0 5.69404e-05
182 *20:27 *890:A0 3.24593e-05
183 *20:96 *890:A0 4.29413e-05
184 *20:109 *890:A0 7.28223e-05
185 *26:16 *724:B1 3.92533e-05
186 *26:16 *57:220 0.000235836
187 *26:16 *57:231 1.23147e-05
188 *26:24 *724:B1 0.000547565
189 *26:140 *57:205 8.66976e-05
190 *26:140 *57:220 1.5714e-05
191 *26:146 *57:178 0.000112673
192 *26:146 *57:205 2.73766e-05
193 *30:12 *57:10 8.62625e-06
194 *30:220 *57:10 0.000158978
195 *30:220 *57:42 0.000410731
196 *32:151 *57:42 0.000349315
197 *32:305 *57:220 0.000121124
198 *35:20 *57:110 0.000138003
199 *38:80 *590:A 7.42891e-05
200 *38:288 *580:A1 0
201 *38:297 *580:A1 1.61631e-05
202 *40:178 *57:237 0.000207892
203 *40:178 *57:248 0.000159908
204 *44:54 *57:97 0.000160047
205 *44:61 *537:A2 4.31534e-05
206 *44:61 *57:97 9.32983e-05
207 *44:124 *57:220 0.00015182
208 *44:124 *57:231 0.000135841
209 *44:126 *57:231 0.000262249
210 *44:126 *57:237 0.000173036
211 *51:106 *580:A1 0.000183479
212 *51:106 *57:248 0.000142309
213 *56:62 *57:42 0
214 *56:62 *57:52 1.95149e-05
215 *56:729 *57:90 0.000247443
216 *56:737 *57:90 2.32625e-05
217 *56:758 *57:90 3.95928e-05
218 *56:758 *57:97 0.000109421
*RES
1 *566:X *57:10 19.7687 
2 *57:10 *57:14 9.10562 
3 *57:14 *590:A 17.5923 
4 *57:14 *655:B 9.24915 
5 *57:10 *57:42 30.5882 
6 *57:42 *57:48 5.63584 
7 *57:48 *57:52 6.51519 
8 *57:52 *890:A0 46.1517 
9 *57:52 *569:B1 10.5513 
10 *57:48 *57:90 42.44 
11 *57:90 *703:A0 9.24915 
12 *57:90 *57:97 5.16022 
13 *57:97 *537:A2 14.2888 
14 *57:97 *57:108 4.5 
15 *57:108 *57:110 3.07775 
16 *57:110 *498:C 13.7491 
17 *57:110 *57:119 3.84719 
18 *57:119 *519:A 13.7491 
19 *57:119 *57:132 7.36462 
20 *57:132 *57:140 9.29853 
21 *57:140 *551:B1 9.82786 
22 *57:140 *528:B1 12.191 
23 *57:132 *57:160 8.7258 
24 *57:160 *501:A 11.0817 
25 *57:160 *493:A1 9.24915 
26 *57:108 *57:178 4.64251 
27 *57:178 *851:A2 17.9118 
28 *57:178 *57:205 28.8787 
29 *57:205 *741:A 9.24915 
30 *57:205 *57:212 4.60562 
31 *57:212 *57:220 19.4247 
32 *57:220 *770:C1 14.4819 
33 *57:220 *57:231 7.64553 
34 *57:231 *57:237 12.4565 
35 *57:237 *845:B1 9.24915 
36 *57:237 *57:248 9.82561 
37 *57:248 *580:A1 23.7045 
38 *57:248 *873:C1 13.7491 
39 *57:231 *57:274 6.88721 
40 *57:274 *724:B1 30.8651 
41 *57:274 *848:A1 9.24915 
42 *57:212 *824:C1 13.8548 
43 *57:42 *623:A1 15.5427 
44 *824:C1 *834:A1 27.4202 
*END

*D_NET *58 0.000802068
*CONN
*I *570:A2 I *D sky130_fd_sc_hd__o21ai_0
*I *567:Y O *D sky130_fd_sc_hd__nor2_1
*CAP
1 *570:A2 0.000227549
2 *567:Y 0.000227549
3 *570:A2 *570:B1 9.08436e-06
4 *570:A2 *457:10 0.000212583
5 *570:A2 *457:16 0.000109589
6 *56:62 *570:A2 1.5714e-05
*RES
1 *567:Y *570:A2 32.1327 
*END

*D_NET *59 0.0589018
*CONN
*I *553:B1 I *D sky130_fd_sc_hd__a31oi_1
*I *902:A1 I *D sky130_fd_sc_hd__o21bai_1
*I *529:A I *D sky130_fd_sc_hd__nor3_1
*I *834:C1 I *D sky130_fd_sc_hd__a211o_1
*I *750:A1 I *D sky130_fd_sc_hd__o311ai_1
*I *871:C1 I *D sky130_fd_sc_hd__o221ai_1
*I *806:A I *D sky130_fd_sc_hd__nor2b_1
*I *785:A1 I *D sky130_fd_sc_hd__o311ai_1
*I *781:B1 I *D sky130_fd_sc_hd__o21ai_0
*I *685:C1 I *D sky130_fd_sc_hd__o2111ai_1
*I *885:D1 I *D sky130_fd_sc_hd__a2111oi_2
*I *820:B1 I *D sky130_fd_sc_hd__o21ai_0
*I *708:D1 I *D sky130_fd_sc_hd__o2111ai_1
*I *860:C1 I *D sky130_fd_sc_hd__o211a_1
*I *530:A2 I *D sky130_fd_sc_hd__a31oi_1
*I *493:B1 I *D sky130_fd_sc_hd__o21ai_0
*I *554:A1 I *D sky130_fd_sc_hd__a221o_1
*I *499:B I *D sky130_fd_sc_hd__nand3_1
*I *561:A1 I *D sky130_fd_sc_hd__a221o_1
*I *560:A I *D sky130_fd_sc_hd__nor2_1
*I *500:A I *D sky130_fd_sc_hd__inv_1
*I *611:A1 I *D sky130_fd_sc_hd__a211o_1
*I *609:A I *D sky130_fd_sc_hd__nor3_1
*I *725:A1 I *D sky130_fd_sc_hd__o32a_1
*I *574:C1 I *D sky130_fd_sc_hd__a221oi_1
*I *749:C1 I *D sky130_fd_sc_hd__o2111ai_1
*I *675:C1 I *D sky130_fd_sc_hd__a2111oi_1
*I *643:B1 I *D sky130_fd_sc_hd__a21oi_1
*I *657:C1 I *D sky130_fd_sc_hd__o211ai_1
*I *568:X O *D sky130_fd_sc_hd__buf_4
*CAP
1 *553:B1 0
2 *902:A1 2.06324e-05
3 *529:A 0.000122868
4 *834:C1 0.00130806
5 *750:A1 0
6 *871:C1 1.313e-05
7 *806:A 0
8 *785:A1 0
9 *781:B1 0
10 *685:C1 0.000580021
11 *885:D1 0.000144291
12 *820:B1 2.29466e-05
13 *708:D1 0.00013163
14 *860:C1 2.03397e-05
15 *530:A2 0
16 *493:B1 0.000251838
17 *554:A1 0
18 *499:B 0.000136239
19 *561:A1 0
20 *560:A 1.22255e-05
21 *500:A 0
22 *611:A1 0.0001163
23 *609:A 0.000199184
24 *725:A1 0.000458775
25 *574:C1 6.0342e-05
26 *749:C1 0.00153824
27 *675:C1 0.000156878
28 *643:B1 0.000443933
29 *657:C1 4.25952e-05
30 *568:X 0.00134764
31 *59:432 0.000420861
32 *59:358 0.00084731
33 *59:356 0.000677256
34 *59:344 0.00124197
35 *59:323 0.00164819
36 *59:317 0.00191582
37 *59:307 0.00116626
38 *59:290 0.000709869
39 *59:277 0.000660503
40 *59:269 0.00033106
41 *59:265 0.00176112
42 *59:259 0.00124308
43 *59:248 0.000684245
44 *59:233 0.000572008
45 *59:227 0.000411455
46 *59:216 0.000360212
47 *59:203 0.000417742
48 *59:196 0.000286643
49 *59:177 0.00035985
50 *59:166 0.000258279
51 *59:46 0.00112802
52 *59:36 0.00090383
53 *59:34 0.00202956
54 *59:32 0.000666903
55 *59:28 0.00115208
56 *59:26 0.000744535
57 *59:24 0.000303091
58 *59:20 0.00156911
59 *493:B1 *494:A 3.5063e-05
60 *493:B1 *494:B 5.58904e-05
61 *493:B1 *501:C 0
62 *493:B1 *530:A3 0.000261135
63 *493:B1 *554:C1 0.000171769
64 *493:B1 *385:40 5.87494e-05
65 *493:B1 *398:32 0.000107496
66 *493:B1 *401:12 0.000109421
67 *493:B1 *461:46 1.65872e-05
68 *499:B *520:B 1.44611e-05
69 *499:B *405:23 9.45864e-05
70 *499:B *461:46 1.07248e-05
71 *529:A *529:B 0.000114584
72 *529:A *902:A2 0.00014642
73 *529:A *902:B1_N 4.87301e-05
74 *574:C1 *574:B2 7.13793e-05
75 *574:C1 *575:B1 1.41976e-05
76 *574:C1 *597:A1 0
77 *574:C1 *705:A2 3.31745e-05
78 *609:A *602:A1 0.000107496
79 *611:A1 *611:B1 2.98258e-05
80 *611:A1 *430:29 0.000250405
81 *643:B1 *644:B1 2.09072e-05
82 *643:B1 *866:A 3.60485e-05
83 *643:B1 *454:77 3.29176e-06
84 *657:C1 *644:A2 0.000109427
85 *657:C1 *454:49 1.5714e-05
86 *675:C1 *630:B1 2.57365e-05
87 *675:C1 *457:115 6.08467e-05
88 *685:C1 *685:B1 7.98171e-06
89 *685:C1 *687:A1 4.24488e-05
90 *685:C1 *699:A 1.55847e-05
91 *685:C1 *771:A 0.000879788
92 *685:C1 *778:A2 0.000117444
93 *685:C1 *779:A 7.24318e-05
94 *685:C1 *881:A2 0.000196726
95 *685:C1 *882:C1 3.75221e-05
96 *685:C1 *107:6 6.46815e-05
97 *685:C1 *165:16 3.00829e-05
98 *685:C1 *267:8 9.29355e-05
99 *685:C1 *455:113 5.04829e-06
100 *708:D1 *740:B1 0.00040884
101 *708:D1 *95:124 0.000107627
102 *708:D1 *95:143 0.000107496
103 *708:D1 *196:28 2.41483e-05
104 *708:D1 *385:80 6.08467e-05
105 *708:D1 *385:101 6.08467e-05
106 *725:A1 *558:A2 0
107 *725:A1 *713:A_N 0.000642944
108 *725:A1 *725:A2 0.0005177
109 *725:A1 *98:12 7.14714e-05
110 *749:C1 *662:A1_N 0.000236913
111 *749:C1 *744:B 8.8408e-05
112 *749:C1 *72:48 3.91071e-05
113 *749:C1 *81:48 0.000218315
114 *749:C1 *158:26 0.00010574
115 *820:B1 *796:A 6.3657e-05
116 *834:C1 *824:D1 0.000156367
117 *834:C1 *834:A2 5.00937e-06
118 *834:C1 *834:B1 2.32299e-05
119 *834:C1 *835:A1 2.15184e-05
120 *860:C1 *852:A2 0.000109421
121 *871:C1 *870:B 6.27782e-05
122 *871:C1 *454:419 6.08467e-05
123 *885:D1 *640:A2 0.000157911
124 *885:D1 *885:B1 8.20145e-05
125 *902:A1 *864:B1 0
126 *59:20 *612:A3 3.26195e-05
127 *59:20 *906:B 2.55138e-05
128 *59:20 *86:10 0
129 *59:20 *88:12 0.000130777
130 *59:20 *407:10 3.23874e-05
131 *59:20 *453:14 7.44948e-05
132 *59:20 *453:84 0.000112361
133 *59:24 *422:158 7.8894e-05
134 *59:28 *64:59 5.11261e-06
135 *59:28 *86:10 0
136 *59:28 *101:42 0.000109858
137 *59:32 *574:A1 2.27135e-05
138 *59:32 *614:A2 6.58698e-05
139 *59:32 *64:46 2.82537e-05
140 *59:32 *64:59 0.000117071
141 *59:34 *582:B 0.000135348
142 *59:34 *583:A2 0.000125695
143 *59:34 *614:A2 0
144 *59:34 *662:A1_N 1.21985e-05
145 *59:34 *64:46 0.000612977
146 *59:34 *72:48 2.18821e-05
147 *59:36 *630:B1 5.1493e-06
148 *59:36 *64:46 0.000105675
149 *59:36 *457:115 2.6524e-05
150 *59:46 *584:B 4.24629e-05
151 *59:46 *64:10 0.000284469
152 *59:46 *64:46 0.000266862
153 *59:46 *454:49 9.23628e-05
154 *59:46 *457:115 8.42331e-05
155 *59:46 *457:117 0.000340161
156 *59:46 *457:119 0.000119854
157 *59:166 *407:10 4.71102e-05
158 *59:177 *501:B 3.46021e-05
159 *59:177 *407:10 9.82911e-06
160 *59:196 *501:B 0
161 *59:196 *405:23 1.59773e-05
162 *59:216 *530:A3 0.000364356
163 *59:227 *530:A3 0.000142194
164 *59:227 *854:A2 6.08467e-05
165 *59:233 *528:A2 0
166 *59:233 *530:A3 0
167 *59:233 *854:A2 2.95757e-05
168 *59:233 *405:44 9.98029e-06
169 *59:248 *530:A3 2.07503e-05
170 *59:248 *385:40 2.46797e-05
171 *59:259 *863:A2 4.96637e-05
172 *59:259 *380:16 0.000451702
173 *59:259 *385:26 5.92342e-05
174 *59:259 *385:40 0.000309329
175 *59:259 *453:152 5.2504e-06
176 *59:259 *461:59 2.77625e-06
177 *59:265 *385:26 0.000136533
178 *59:269 *334:12 0.000234508
179 *59:269 *357:18 1.8415e-06
180 *59:269 *371:26 0.000177577
181 *59:277 *765:B 0.000132826
182 *59:277 *852:A2 0.000203756
183 *59:277 *101:34 2.33827e-05
184 *59:277 *334:12 1.6214e-05
185 *59:277 *357:18 2.35849e-05
186 *59:290 *708:C1 0
187 *59:290 *740:B1 4.19401e-06
188 *59:290 *861:A2 0
189 *59:290 *357:18 0.000479903
190 *59:290 *453:152 7.09666e-06
191 *59:307 *724:A1 9.25867e-05
192 *59:307 *861:A2 0
193 *59:307 *871:B1 4.79289e-05
194 *59:307 *95:143 0.000103846
195 *59:307 *357:18 5.60364e-06
196 *59:317 *719:B2 3.64803e-06
197 *59:317 *724:A1 1.85244e-05
198 *59:317 *740:B1 0
199 *59:317 *741:B 2.91331e-05
200 *59:317 *825:A2 0.0016753
201 *59:317 *871:B1 7.09666e-06
202 *59:317 *95:143 2.00422e-05
203 *59:317 *95:149 2.57465e-06
204 *59:317 *196:24 4.26703e-05
205 *59:317 *273:28 0.000114048
206 *59:317 *393:55 0.000144717
207 *59:317 *453:243 4.96168e-05
208 *59:317 *455:325 0.000138121
209 *59:323 *821:A1 3.51505e-05
210 *59:323 *821:A4 7.37686e-05
211 *59:323 *836:A1_N 1.53858e-05
212 *59:323 *836:A2_N 2.83365e-05
213 *59:323 *836:B2 2.33103e-06
214 *59:323 *126:103 0
215 *59:323 *210:26 2.62311e-05
216 *59:323 *233:37 0
217 *59:323 *393:55 0.000316355
218 *59:323 *397:107 0.00040266
219 *59:323 *429:98 4.7294e-05
220 *59:323 *453:243 5.03545e-06
221 *59:323 *453:253 1.07549e-05
222 *59:344 *710:A 0
223 *59:344 *715:B 4.46431e-05
224 *59:344 *785:A2 9.12416e-06
225 *59:344 *785:C1 1.98448e-05
226 *59:344 *821:A1 5.24677e-05
227 *59:344 *821:A2 8.14128e-07
228 *59:344 *204:52 4.60221e-06
229 *59:344 *210:26 6.25468e-06
230 *59:344 *212:30 2.14262e-05
231 *59:344 *273:28 0.00011965
232 *59:344 *422:90 3.35621e-05
233 *59:356 *753:B1 0.000130777
234 *59:356 *753:B2 9.71324e-06
235 *59:356 *782:A2 1.67329e-05
236 *59:356 *782:B1 0.000408847
237 *59:356 *785:B1 6.64392e-05
238 *59:356 *795:B 8.14834e-05
239 *59:356 *878:A2 0
240 *59:356 *269:12 0.000266681
241 *59:356 *455:220 8.13812e-06
242 *59:358 *640:A2 3.20407e-05
243 *59:358 *758:A1 3.64497e-06
244 *59:358 *397:61 0.00016194
245 *59:358 *455:220 7.45365e-06
246 *59:432 *864:A2 2.65667e-05
247 *59:432 *864:B1 2.65667e-05
248 *59:432 *886:A2 3.99086e-06
249 *498:B *609:A 2.76098e-05
250 *528:A1 *59:233 0.000197269
251 *530:B1 *59:233 0
252 *553:A1 *59:227 0.000172569
253 *554:A2 *59:227 3.75221e-05
254 *554:B2 *59:216 5.85663e-05
255 *554:B2 *59:227 5.10153e-05
256 *558:A1 *725:A1 0.000350129
257 *561:A2 *499:B 2.95757e-05
258 *561:A2 *59:203 3.75221e-05
259 *561:B1 *59:196 6.50727e-05
260 *561:B2 *59:177 6.64392e-05
261 *561:B2 *59:196 8.13433e-05
262 *562:B *59:216 2.66208e-05
263 *562:C *499:B 3.18679e-05
264 *562:C *59:203 1.21461e-06
265 *562:C *59:216 2.32967e-05
266 *587:A1 *59:46 2.16355e-05
267 *587:B1_N *59:46 4.36673e-05
268 *594:C2 *749:C1 0
269 *608:A1 *59:24 2.77564e-05
270 *608:A1 *59:26 7.91094e-05
271 *612:A1 *59:20 0.000130777
272 *617:A *685:C1 7.66391e-06
273 *619:A1 *59:20 4.15143e-05
274 *619:A1 *59:24 0.000217822
275 *619:A1 *59:26 0.000121094
276 *619:A1 *59:28 0.000601865
277 *619:B1 *59:28 0.000139257
278 *630:A1 *675:C1 2.07503e-05
279 *642:B2 *59:46 2.68666e-06
280 *657:A1 *657:C1 0.000107496
281 *664:B2 *59:34 0
282 *669:A_N *749:C1 0.000108694
283 *669:B *749:C1 0.00010085
284 *749:A1 *749:C1 0.000168372
285 *779:B_N *685:C1 0.000209636
286 *789:B *59:344 0.000263407
287 *819:A1 *59:344 2.18196e-05
288 *824:C1 *834:C1 9.82896e-06
289 *834:A1 *834:C1 0.000746671
290 *906:A *59:20 9.04282e-05
291 *916:D *59:323 6.00956e-05
292 *920:D *59:20 6.51056e-05
293 *933:D *59:20 3.38851e-05
294 *933:CLK *59:20 0.000216467
295 *32:39 *59:259 7.15724e-05
296 *32:39 *59:265 7.50722e-05
297 *32:54 *59:259 0.000121019
298 *37:137 *749:C1 2.08128e-05
299 *37:147 *749:C1 0.000138599
300 *37:179 *59:344 1.43526e-05
301 *37:270 *749:C1 3.39131e-05
302 *37:377 *885:D1 8.61638e-05
303 *38:76 *675:C1 1.25784e-05
304 *38:303 *59:323 5.32981e-05
305 *38:335 *59:323 0.000143215
306 *40:16 *59:28 3.03904e-05
307 *40:26 *59:28 3.33269e-05
308 *40:95 *59:290 1.66626e-05
309 *40:194 *59:356 7.14746e-05
310 *40:200 *885:D1 6.47736e-05
311 *40:200 *59:356 1.3807e-05
312 *40:200 *59:358 9.20374e-05
313 *40:469 *749:C1 0.000311357
314 *40:647 *657:C1 4.69495e-06
315 *40:647 *59:46 2.57465e-06
316 *40:662 *59:46 8.74843e-05
317 *48:67 *749:C1 8.31088e-06
318 *50:20 *609:A 0.000132817
319 *51:41 *749:C1 0
320 *51:154 *560:A 4.65954e-06
321 *51:154 *59:177 6.47083e-05
322 *51:154 *59:196 2.29454e-05
323 *51:173 *59:28 6.44185e-05
324 *51:173 *59:32 7.26606e-05
325 *56:23 *59:20 0.000108712
326 *56:141 *749:C1 0.000558396
327 *56:296 *749:C1 0.00018013
328 *56:314 *749:C1 9.668e-05
329 *56:403 *59:323 0
330 *56:550 *59:323 0
331 *56:624 *860:C1 0.000112361
332 *56:624 *59:233 8.62625e-06
333 *56:624 *59:277 0.000191468
334 *56:737 *609:A 0.0001355
335 *56:737 *59:26 4.9e-05
336 *56:737 *59:28 5.23435e-05
337 *57:90 *609:A 0.000439942
338 *57:132 *499:B 0
339 *57:205 *834:C1 0.000106174
340 *57:205 *59:265 0.000158044
341 *57:212 *834:C1 8.66329e-05
*RES
1 *568:X *59:20 48.2214 
2 *59:20 *59:24 8.82351 
3 *59:24 *59:26 2.6625 
4 *59:26 *59:28 14.7048 
5 *59:28 *59:32 6.71732 
6 *59:32 *59:34 12.0057 
7 *59:34 *59:36 2.45487 
8 *59:36 *59:46 26.3369 
9 *59:46 *657:C1 15.4058 
10 *59:46 *643:B1 21.6801 
11 *59:36 *675:C1 16.8839 
12 *59:34 *749:C1 32.8365 
13 *59:32 *574:C1 15.6059 
14 *59:28 *725:A1 36.1502 
15 *59:26 *609:A 30.5719 
16 *59:24 *611:A1 17.2697 
17 *59:20 *59:166 2.5982 
18 *59:166 *500:A 9.24915 
19 *59:166 *59:177 4.58754 
20 *59:177 *560:A 9.82786 
21 *59:177 *59:196 13.4121 
22 *59:196 *561:A1 9.24915 
23 *59:196 *59:203 1.8326 
24 *59:203 *499:B 22.5727 
25 *59:203 *59:216 6.26943 
26 *59:216 *554:A1 9.24915 
27 *59:216 *59:227 5.35313 
28 *59:227 *59:233 14.9845 
29 *59:233 *493:B1 18.3639 
30 *59:233 *59:248 1.278 
31 *59:248 *530:A2 9.24915 
32 *59:248 *59:259 17.0355 
33 *59:259 *59:265 11.077 
34 *59:265 *59:269 8.82351 
35 *59:269 *59:277 11.5283 
36 *59:277 *860:C1 10.5271 
37 *59:277 *59:290 14.9546 
38 *59:290 *708:D1 19.6494 
39 *59:290 *59:307 4.81204 
40 *59:307 *59:317 12.4839 
41 *59:317 *59:323 25.4525 
42 *59:323 *820:B1 14.4725 
43 *59:323 *59:344 13.7641 
44 *59:344 *59:356 18.7741 
45 *59:356 *59:358 4.32351 
46 *59:358 *885:D1 19.2141 
47 *59:358 *685:C1 33.2326 
48 *59:356 *781:B1 13.7491 
49 *59:344 *785:A1 9.24915 
50 *59:317 *806:A 13.7491 
51 *59:307 *871:C1 14.4725 
52 *59:269 *750:A1 13.7491 
53 *59:265 *834:C1 31.8914 
54 *59:259 *59:432 8.98505 
55 *59:432 *529:A 13.3002 
56 *59:432 *902:A1 9.82786 
57 *59:227 *553:B1 9.24915 
*END

*D_NET *60 0.000834147
*CONN
*I *570:B1 I *D sky130_fd_sc_hd__o21ai_0
*I *569:Y O *D sky130_fd_sc_hd__o21ai_0
*CAP
1 *570:B1 0.000223574
2 *569:Y 0.000223574
3 *570:B1 *569:A2 6.36477e-05
4 *570:B1 *61:24 6.08467e-05
5 *570:B1 *457:24 0.00011658
6 *570:B1 *457:37 1.65872e-05
7 *570:B1 *457:59 5.62361e-05
8 *570:A2 *570:B1 9.08436e-06
9 *56:62 *570:B1 6.12003e-05
10 *57:52 *570:B1 2.81678e-06
*RES
1 *569:Y *570:B1 33.0196 
*END

*D_NET *61 0.00185202
*CONN
*I *575:A2 I *D sky130_fd_sc_hd__o21ai_0
*I *570:Y O *D sky130_fd_sc_hd__o21ai_0
*CAP
1 *575:A2 0
2 *570:Y 0.000443277
3 *61:24 0.000443277
4 *61:24 *597:A1 0
5 *61:24 *623:A3 0.00011056
6 *61:24 *626:A1 2.78895e-05
7 *61:24 *626:B1 0.000107792
8 *61:24 *660:A2 7.26748e-05
9 *61:24 *110:10 6.56531e-05
10 *61:24 *110:12 2.95757e-05
11 *61:24 *453:30 0.000102868
12 *61:24 *454:330 0.000175666
13 *570:B1 *61:24 6.08467e-05
14 *620:A *61:24 4.80635e-06
15 *56:62 *61:24 0.000207129
*RES
1 *570:Y *61:24 41.3965 
2 *61:24 *575:A2 9.24915 
*END

*D_NET *62 0.0180075
*CONN
*I *706:A1 I *D sky130_fd_sc_hd__a221oi_1
*I *574:A2 I *D sky130_fd_sc_hd__a221oi_1
*I *814:A I *D sky130_fd_sc_hd__nand2_1
*I *778:B1 I *D sky130_fd_sc_hd__o21ai_0
*I *588:A1 I *D sky130_fd_sc_hd__a31oi_1
*I *671:B1 I *D sky130_fd_sc_hd__a21oi_1
*I *654:A2 I *D sky130_fd_sc_hd__a31oi_1
*I *650:A1 I *D sky130_fd_sc_hd__a21oi_1
*I *571:X O *D sky130_fd_sc_hd__and2_1
*CAP
1 *706:A1 6.33276e-06
2 *574:A2 0.000490979
3 *814:A 9.48215e-05
4 *778:B1 0
5 *588:A1 0.000234999
6 *671:B1 8.15928e-05
7 *654:A2 0
8 *650:A1 0.000106718
9 *571:X 0.000360427
10 *62:115 0.00144288
11 *62:94 0.00165076
12 *62:73 0.00248467
13 *62:35 0.000540137
14 *62:29 0.00209784
15 *62:12 0.000467144
16 *574:A2 *574:B1 4.80635e-06
17 *574:A2 *574:B2 6.44317e-05
18 *574:A2 *705:A1 1.16628e-05
19 *574:A2 *705:A2 9.25729e-05
20 *574:A2 *706:C1 2.09033e-05
21 *574:A2 *725:A3 2.06478e-05
22 *574:A2 *189:14 1.41976e-05
23 *588:A1 *584:B 3.18518e-05
24 *588:A1 *588:A3 0.000158794
25 *588:A1 *594:B1 1.99858e-05
26 *650:A1 *650:B1 0.000164829
27 *671:B1 *672:A 5.93806e-05
28 *671:B1 *672:B 7.92757e-06
29 *671:B1 *673:B1 1.65872e-05
30 *706:A1 *189:14 6.50727e-05
31 *814:A *431:24 0.000217028
32 *62:12 *83:12 2.27085e-05
33 *62:12 *454:53 7.04109e-05
34 *62:12 *455:40 8.36586e-06
35 *62:35 *659:B1 0.000158002
36 *62:73 *659:B1 0.000390085
37 *62:73 *681:B 0.000313143
38 *62:73 *683:A2 1.37939e-05
39 *62:73 *684:A2 1.85244e-05
40 *62:73 *684:C1 0.000249375
41 *62:73 *689:A2 2.06605e-05
42 *62:73 *699:A 0.000106581
43 *62:73 *882:A2 0.000100408
44 *62:73 *168:14 4.4565e-05
45 *62:73 *236:20 2.6543e-05
46 *62:73 *419:43 0
47 *62:73 *454:218 2.29165e-05
48 *62:94 *781:A1 0.000112784
49 *62:94 *882:A2 4.19841e-05
50 *62:94 *107:18 0.000243859
51 *62:94 *175:21 0.000303366
52 *62:94 *267:19 8.8371e-05
53 *62:94 *267:32 0.000306995
54 *62:94 *431:24 9.43286e-05
55 *62:115 *705:A1 0.000160617
56 *62:115 *706:C1 6.1478e-06
57 *62:115 *797:A1 2.05342e-06
58 *62:115 *858:A1 9.83674e-06
59 *62:115 *107:18 0.000216098
60 *62:115 *107:33 0.000284546
61 *62:115 *107:50 0.000174205
62 *62:115 *189:14 3.10697e-05
63 *62:115 *233:43 0
64 *62:115 *397:67 0.000249385
65 *631:B1 *588:A1 2.26728e-05
66 *644:A1 *62:12 0.000107496
67 *667:A *62:115 5.73392e-05
68 *667:B *62:115 2.57847e-05
69 *669:A_N *62:115 0
70 *671:A2 *671:B1 0.000107496
71 *682:B *62:73 0.000124975
72 *705:B1 *574:A2 6.08467e-05
73 *712:A1 *62:115 0.000125695
74 *797:B1 *62:115 4.79289e-05
75 *837:A1 *62:115 6.50727e-05
76 *30:41 *588:A1 3.14978e-05
77 *30:169 *62:73 5.20167e-05
78 *30:318 *62:94 1.91391e-05
79 *33:50 *574:A2 0.000305631
80 *37:18 *62:73 0.000200794
81 *37:137 *62:115 0
82 *37:270 *62:115 0
83 *38:23 *62:12 0.000332467
84 *38:174 *814:A 9.43222e-06
85 *38:174 *62:94 9.19632e-06
86 *38:174 *62:115 6.93171e-05
87 *38:182 *62:94 0.000240262
88 *40:200 *62:73 3.74034e-05
89 *40:200 *62:94 0.000132133
90 *40:272 *62:73 0.000347651
91 *40:662 *588:A1 2.22156e-05
92 *41:30 *62:115 2.27901e-06
93 *48:23 *588:A1 1.03594e-05
94 *48:23 *62:35 0.000182532
95 *48:44 *588:A1 0.000143799
96 *56:99 *62:35 0.000192334
97 *56:314 *62:115 0
*RES
1 *571:X *62:12 24.8261 
2 *62:12 *650:A1 11.0817 
3 *62:12 *654:A2 9.24915 
4 *571:X *62:29 9.24915 
5 *62:29 *62:35 9.82561 
6 *62:35 *671:B1 16.1605 
7 *62:35 *588:A1 20.7746 
8 *62:29 *62:73 30.9905 
9 *62:73 *778:B1 13.7491 
10 *62:73 *62:94 31.4892 
11 *62:94 *814:A 12.625 
12 *62:94 *62:115 35.4266 
13 *62:115 *574:A2 22.3908 
14 *62:115 *706:A1 9.97254 
*END

*D_NET *63 0.00132209
*CONN
*P exp_out[9] O
*I *572:X O *D sky130_fd_sc_hd__clkdlybuf4s50_1
*CAP
1 exp_out[9] 0.000586407
2 *572:X 0.000586407
3 exp_out[9] exp_out[0] 0
4 exp_out[9] *572:A 0.00012316
5 exp_out[9] *628:A 2.61147e-05
*RES
1 *572:X exp_out[9] 23.3556 
*END

*D_NET *64 0.0148815
*CONN
*I *615:A3 I *D sky130_fd_sc_hd__o311ai_0
*I *709:A2 I *D sky130_fd_sc_hd__a31oi_1
*I *574:B1 I *D sky130_fd_sc_hd__a221oi_1
*I *699:A I *D sky130_fd_sc_hd__inv_1
*I *672:A I *D sky130_fd_sc_hd__nand2_1
*I *573:Y O *D sky130_fd_sc_hd__nor2_1
*CAP
1 *615:A3 2.02496e-05
2 *709:A2 0.00173653
3 *574:B1 0.000100186
4 *699:A 0.00151595
5 *672:A 3.16418e-05
6 *573:Y 0.00015083
7 *64:59 0.00187669
8 *64:46 0.000718189
9 *64:10 0.00177675
10 *64:8 0.000878078
11 *574:B1 *574:B2 4.54238e-05
12 *574:B1 *597:A1 0
13 *615:A3 *101:42 3.63738e-05
14 *615:A3 *407:23 3.17924e-05
15 *672:A *672:B 5.10173e-06
16 *672:A *673:B1 0.000112296
17 *699:A *644:A2 0.000671597
18 *699:A *674:B1 0.000137566
19 *699:A *689:A2 0
20 *699:A *700:A2 1.91246e-05
21 *699:A *267:8 3.19445e-05
22 *699:A *419:43 0.00018777
23 *699:A *454:212 1.5714e-05
24 *709:A2 *574:A1 0
25 *709:A2 *607:C 3.88389e-05
26 *709:A2 *615:A1 0.000403258
27 *709:A2 *622:B1 3.2258e-05
28 *709:A2 *871:A2 0.000133672
29 *709:A2 *107:50 4.34267e-05
30 *709:A2 *107:69 1.03594e-05
31 *709:A2 *430:57 1.91391e-05
32 *64:10 *594:B1 1.54112e-05
33 *64:10 *693:B 0.000138235
34 *64:10 *407:23 5.41377e-05
35 *64:10 *457:119 3.28202e-05
36 *64:46 *407:23 0.00103977
37 *64:59 *101:42 1.5714e-05
38 *64:59 *407:23 0.000285211
39 *574:A2 *574:B1 4.80635e-06
40 *587:A1 *64:10 0.000155293
41 *671:A2 *672:A 2.88746e-05
42 *671:B1 *672:A 5.93806e-05
43 *685:C1 *699:A 1.55847e-05
44 *30:41 *64:8 0.000154145
45 *30:54 *64:8 6.08467e-05
46 *35:20 *709:A2 0.000295521
47 *40:272 *699:A 0.000111409
48 *41:30 *709:A2 1.11823e-05
49 *44:18 *709:A2 2.05925e-05
50 *48:44 *699:A 2.20465e-05
51 *48:93 *699:A 5.2777e-05
52 *59:28 *64:59 5.11261e-06
53 *59:32 *64:46 2.82537e-05
54 *59:32 *64:59 0.000117071
55 *59:34 *64:46 0.000612977
56 *59:36 *64:46 0.000105675
57 *59:46 *64:10 0.000284469
58 *59:46 *64:46 0.000266862
59 *62:73 *699:A 0.000106581
*RES
1 *573:Y *64:8 16.1364 
2 *64:8 *64:10 7.64553 
3 *64:10 *672:A 15.5576 
4 *64:10 *699:A 24.8135 
5 *64:8 *64:46 20.1031 
6 *64:46 *574:B1 15.6059 
7 *64:46 *64:59 5.36164 
8 *64:59 *709:A2 24.9255 
9 *64:59 *615:A3 14.543 
*END

*D_NET *65 0.000757177
*CONN
*I *575:B1 I *D sky130_fd_sc_hd__o21ai_0
*I *574:Y O *D sky130_fd_sc_hd__a221oi_1
*CAP
1 *575:B1 0.000139279
2 *574:Y 0.000139279
3 *575:B1 *597:A1 4.84271e-05
4 *575:B1 *705:A2 0.000406808
5 *575:B1 *88:12 9.18559e-06
6 *574:C1 *575:B1 1.41976e-05
7 *620:A *575:B1 0
*RES
1 *574:Y *575:B1 23.6826 
*END

*D_NET *66 0.000301355
*CONN
*I *597:A1 I *D sky130_fd_sc_hd__o21ai_0
*I *575:Y O *D sky130_fd_sc_hd__o21ai_0
*CAP
1 *597:A1 0.000126464
2 *575:Y 0.000126464
3 *574:B1 *597:A1 0
4 *574:C1 *597:A1 0
5 *575:B1 *597:A1 4.84271e-05
6 *61:24 *597:A1 0
*RES
1 *575:Y *597:A1 21.4642 
*END

*D_NET *67 0.00118915
*CONN
*P exp_out[8] O
*I *576:X O *D sky130_fd_sc_hd__clkdlybuf4s50_1
*CAP
1 exp_out[8] 0.000480514
2 *576:X 0.000480514
3 exp_out[8] exp_out[3] 0
4 exp_out[8] *503:B 0
5 exp_out[8] *506:A1 2.48716e-05
6 exp_out[8] *506:A2 0.000167481
7 *32:72 exp_out[8] 3.57646e-05
*RES
1 *576:X exp_out[8] 24.8028 
*END

*D_NET *68 0.00564144
*CONN
*I *818:B I *D sky130_fd_sc_hd__nor3_1
*I *578:B I *D sky130_fd_sc_hd__nor2_1
*I *857:A1 I *D sky130_fd_sc_hd__o22ai_1
*I *723:B1 I *D sky130_fd_sc_hd__o22ai_1
*I *754:A1 I *D sky130_fd_sc_hd__a21o_1
*I *577:Y O *D sky130_fd_sc_hd__nand2b_1
*CAP
1 *818:B 2.52683e-05
2 *578:B 0.0001143
3 *857:A1 0
4 *723:B1 0
5 *754:A1 0.000180698
6 *577:Y 0.000124128
7 *68:36 0.00043159
8 *68:30 0.000592612
9 *68:19 0.000551353
10 *68:8 0.000606126
11 *578:B *263:54 0.000146976
12 *578:B *455:298 2.16355e-05
13 *754:A1 *756:A1 1.53573e-05
14 *754:A1 *756:A2 6.08467e-05
15 *754:A1 *97:16 6.92705e-05
16 *818:B *821:A2 6.08467e-05
17 *68:8 *263:48 2.26322e-05
18 *68:19 *771:B 9.88895e-05
19 *68:19 *793:A2_N 4.83617e-06
20 *68:19 *794:D 6.22114e-05
21 *68:19 *209:21 5.77029e-06
22 *68:30 *723:A2 1.03269e-05
23 *68:30 *771:B 2.29386e-05
24 *68:30 *813:C1 0.000136323
25 *68:30 *821:A1 0.000446069
26 *68:30 *126:86 3.39319e-05
27 *68:30 *126:103 0.000202987
28 *68:30 *422:90 8.5841e-05
29 *68:36 *821:A2 0.000253367
30 *68:36 *263:54 0.000408479
31 *580:A1 *578:B 6.08467e-05
32 *754:B1 *754:A1 2.65831e-05
33 *756:B1 *68:8 4.76248e-05
34 *793:A1_N *68:19 4.87831e-05
35 *794:B *68:36 1.75816e-05
36 *818:A *68:30 0
37 *30:349 *68:19 8.19457e-05
38 *37:392 *68:19 2.83043e-05
39 *38:288 *578:B 5.13043e-05
40 *38:288 *68:36 3.5534e-06
41 *38:389 *68:19 5.62944e-05
42 *40:379 *68:19 4.11872e-05
43 *40:381 *68:8 0.000174906
44 *40:381 *68:19 0.000109229
45 *44:179 *68:19 0
46 *51:106 *578:B 5.66868e-06
47 *51:106 *68:36 9.20196e-05
*RES
1 *577:Y *68:8 17.2421 
2 *68:8 *754:A1 16.691 
3 *68:8 *68:19 8.47603 
4 *68:19 *723:B1 13.7491 
5 *68:19 *68:30 14.637 
6 *68:30 *68:36 15.0873 
7 *68:36 *857:A1 13.7491 
8 *68:36 *578:B 17.5503 
9 *68:30 *818:B 9.97254 
*END

*D_NET *69 0.000842513
*CONN
*I *873:A2 I *D sky130_fd_sc_hd__o311a_1
*I *580:A2 I *D sky130_fd_sc_hd__o21ai_0
*I *578:Y O *D sky130_fd_sc_hd__nor2_1
*CAP
1 *873:A2 5.66655e-05
2 *580:A2 0.00014949
3 *578:Y 4.56686e-05
4 *69:6 0.000251824
5 *580:A2 *737:A2 1.55025e-05
6 *873:A2 *263:54 9.60366e-05
7 *580:A1 *580:A2 0.000171036
8 *580:A1 *69:6 1.88014e-05
9 *732:A1 *580:A2 2.53145e-06
10 *738:A1 *873:A2 3.49575e-05
*RES
1 *578:Y *69:6 9.97254 
2 *69:6 *580:A2 13.3484 
3 *69:6 *873:A2 20.0811 
*END

*D_NET *70 0.0256308
*CONN
*I *788:A I *D sky130_fd_sc_hd__nor3_1
*I *718:A I *D sky130_fd_sc_hd__nand3_1
*I *766:A I *D sky130_fd_sc_hd__nand3_1
*I *580:B1 I *D sky130_fd_sc_hd__o21ai_0
*I *739:A1 I *D sky130_fd_sc_hd__a211oi_1
*I *840:A I *D sky130_fd_sc_hd__nor3_1
*I *841:A1_N I *D sky130_fd_sc_hd__o2bb2ai_1
*I *641:A1 I *D sky130_fd_sc_hd__a21oi_1
*I *647:B1 I *D sky130_fd_sc_hd__o21ai_0
*I *579:Y O *D sky130_fd_sc_hd__clkinv_1
*CAP
1 *788:A 0.000631097
2 *718:A 0.000250088
3 *766:A 0
4 *580:B1 2.57249e-05
5 *739:A1 0.00129981
6 *840:A 0.000109967
7 *841:A1_N 9.8257e-05
8 *641:A1 7.77285e-05
9 *647:B1 0.000888559
10 *579:Y 0
11 *70:126 0.00172032
12 *70:99 0.00231823
13 *70:76 0.0022025
14 *70:63 0.000261368
15 *70:48 0.0015283
16 *70:10 0.00169311
17 *70:6 0.00239047
18 *70:4 0.000935683
19 *580:B1 *258:8 3.63738e-05
20 *641:A1 *126:26 0
21 *641:A1 *131:20 0
22 *647:B1 *651:A 7.34948e-06
23 *647:B1 *126:26 0
24 *718:A *707:A_N 1.09572e-05
25 *718:A *718:C 6.27782e-05
26 *718:A *770:B1 7.92757e-06
27 *718:A *455:359 7.50803e-05
28 *739:A1 *518:B1 0.000113351
29 *739:A1 *574:A1 1.38728e-05
30 *739:A1 *797:A1 2.11547e-05
31 *739:A1 *851:B1 3.73224e-05
32 *739:A1 *419:83 0.000999985
33 *739:A1 *454:419 1.61197e-05
34 *788:A *776:A3 3.25584e-05
35 *788:A *790:A1 0.000110337
36 *788:A *126:14 7.67191e-05
37 *788:A *263:20 0.000602991
38 *840:A *840:C 0.000159038
39 *841:A1_N *798:A2 2.53145e-06
40 *841:A1_N *803:A2 7.58254e-05
41 *841:A1_N *841:A2_N 5.05688e-06
42 *841:A1_N *842:B1 4.69495e-06
43 *841:A1_N *267:49 2.55661e-06
44 *70:6 *776:A3 1.15851e-05
45 *70:6 *454:133 0.000113302
46 *70:10 *454:126 0.000169173
47 *70:10 *454:133 5.2472e-05
48 *70:48 *876:B 0.000614751
49 *70:48 *72:34 6.44644e-05
50 *70:48 *138:20 6.88661e-06
51 *70:48 *158:26 0.000331116
52 *70:48 *419:62 0.000746788
53 *70:48 *419:83 0.000138158
54 *70:63 *842:B1 3.22124e-05
55 *70:76 *842:B1 4.063e-05
56 *70:76 *158:14 2.26985e-05
57 *70:76 *168:101 4.40272e-05
58 *70:99 *574:A1 1.29079e-05
59 *70:99 *711:B 0.00102974
60 *70:99 *797:A1 7.00171e-06
61 *70:99 *858:A2 1.43499e-05
62 *70:99 *158:14 6.21488e-06
63 *70:99 *212:30 0
64 *70:99 *397:61 1.42709e-05
65 *70:126 *785:C1 0.00142785
66 *70:126 *204:109 7.27864e-06
67 *70:126 *237:34 0.000105792
68 *70:126 *249:34 6.37393e-06
69 *707:B *718:A 7.83608e-08
70 *712:A1 *70:99 6.26025e-05
71 *738:A1 *580:B1 3.63738e-05
72 *30:79 *70:10 0.000147325
73 *30:83 *641:A1 0
74 *30:107 *70:10 2.41483e-05
75 *30:116 *70:10 4.60283e-05
76 *37:147 *70:48 6.03237e-05
77 *38:269 *70:99 0.000111599
78 *39:30 *70:126 0.000153427
79 *40:116 *718:A 0.000117543
80 *40:453 *840:A 3.95516e-05
81 *41:18 *70:48 0.000467189
82 *41:30 *841:A1_N 3.66916e-05
83 *41:30 *70:63 9.32938e-05
84 *41:30 *70:76 0.000168075
85 *44:124 *718:A 8.19046e-05
86 *51:70 *70:48 5.60804e-05
87 *51:70 *70:99 2.68538e-06
*RES
1 *579:Y *70:4 9.24915 
2 *70:4 *70:6 5.16022 
3 *70:6 *70:10 16.8701 
4 *70:10 *647:B1 35.0217 
5 *70:10 *641:A1 15.1659 
6 *70:6 *70:48 18.0711 
7 *70:48 *841:A1_N 16.255 
8 *70:48 *70:63 2.03962 
9 *70:63 *840:A 16.691 
10 *70:63 *70:76 6.65416 
11 *70:76 *739:A1 21.5603 
12 *70:76 *70:99 2.03863 
13 *70:99 *580:B1 17.9118 
14 *70:99 *70:126 12.607 
15 *70:126 *766:A 9.24915 
16 *70:126 *718:A 16.3023 
17 *70:4 *788:A 21.6674 
*END

*D_NET *71 0.00706315
*CONN
*I *583:A1 I *D sky130_fd_sc_hd__a21oi_1
*I *580:Y O *D sky130_fd_sc_hd__o21ai_0
*CAP
1 *583:A1 0.00115843
2 *580:Y 0.000303022
3 *71:12 0.00146145
4 *583:A1 *634:A1 0.00159422
5 *583:A1 *668:B1_N 0.000546755
6 *583:A1 *732:A2 1.28832e-05
7 *583:A1 *746:B1 1.34424e-05
8 *583:A1 *746:B2 6.48184e-05
9 *583:A1 *837:B1 0.000252649
10 *583:A1 *857:B2 6.50586e-05
11 *583:A1 *858:A1 2.15348e-05
12 *583:A1 *858:B1 0.000101381
13 *583:A1 *861:A2 6.50727e-05
14 *583:A1 *107:33 1.58551e-05
15 *583:A1 *457:82 6.93602e-05
16 *71:12 *732:A2 5.04829e-06
17 *71:12 *857:B2 5.51483e-06
18 *559:A *583:A1 2.57847e-05
19 *632:B *583:A1 6.08467e-05
20 *712:A1 *583:A1 0.000400335
21 *732:A1 *71:12 0.000227034
22 *738:A1 *71:12 9.75243e-05
23 *746:A2 *583:A1 0.000357979
24 *30:251 *583:A1 3.75404e-05
25 *48:149 *583:A1 3.31745e-05
26 *49:95 *583:A1 6.64392e-05
*RES
1 *580:Y *71:12 15.4462 
2 *71:12 *583:A1 48.4572 
*END

*D_NET *72 0.0154535
*CONN
*I *792:B2 I *D sky130_fd_sc_hd__o22ai_1
*I *754:A2 I *D sky130_fd_sc_hd__a21o_1
*I *877:A3 I *D sky130_fd_sc_hd__a31oi_1
*I *638:B1 I *D sky130_fd_sc_hd__o21ai_0
*I *582:B I *D sky130_fd_sc_hd__nand2_1
*I *662:A2_N I *D sky130_fd_sc_hd__a2bb2oi_1
*I *581:Y O *D sky130_fd_sc_hd__nand2b_2
*CAP
1 *792:B2 0.000265735
2 *754:A2 0
3 *877:A3 0
4 *638:B1 1.52673e-05
5 *582:B 0.000196947
6 *662:A2_N 0
7 *581:Y 0
8 *72:90 0.000364203
9 *72:48 0.00308069
10 *72:34 0.0038085
11 *72:28 0.00193902
12 *72:4 0.00112799
13 *582:B *614:A2 1.4227e-05
14 *582:B *662:A1_N 3.5534e-06
15 *582:B *148:12 0
16 *638:B1 *881:B1 3.5534e-06
17 *638:B1 *126:26 7.86825e-06
18 *638:B1 *454:126 9.12416e-06
19 *792:B2 *793:B1 5.04829e-06
20 *792:B2 *168:14 2.57465e-06
21 *792:B2 *210:14 9.29919e-05
22 *72:28 *789:A 5.32954e-05
23 *72:28 *799:B1 0.000266921
24 *72:28 *876:B 2.81627e-06
25 *72:28 *879:B1 2.5531e-05
26 *72:28 *880:A2 0
27 *72:28 *885:A2 2.79176e-05
28 *72:28 *97:33 9.94918e-05
29 *72:28 *126:26 1.07248e-05
30 *72:28 *274:31 0.000267333
31 *72:28 *454:149 0
32 *72:28 *455:200 0.000145868
33 *72:34 *876:B 4.96202e-06
34 *72:34 *126:26 0.000191518
35 *72:34 *138:20 0.000155137
36 *72:34 *454:149 0.000110986
37 *72:34 *455:200 1.07248e-05
38 *72:48 *614:A2 0.00120318
39 *72:48 *662:A1_N 1.45434e-05
40 *72:48 *138:20 0.000428659
41 *72:90 *97:33 4.69495e-06
42 *577:A_N *72:28 0.000142314
43 *582:A *582:B 4.31603e-06
44 *749:C1 *72:48 3.91071e-05
45 *754:B1 *792:B2 0
46 *789:B *72:28 1.03403e-05
47 *792:A1 *792:B2 0.000226137
48 *792:A2 *792:B2 2.16355e-05
49 *792:B1 *792:B2 5.04829e-06
50 *793:B2 *792:B2 5.51483e-06
51 *875:B *72:28 0
52 *30:228 *582:B 5.24138e-05
53 *32:151 *582:B 0.000107496
54 *40:381 *72:90 0
55 *40:412 *72:28 0.000277502
56 *44:216 *792:B2 1.63255e-05
57 *48:67 *72:48 0.000115156
58 *56:501 *792:B2 2.52238e-05
59 *56:503 *792:B2 6.35844e-05
60 *56:511 *792:B2 9.12416e-06
61 *56:511 *72:90 0.000148997
62 *59:34 *582:B 0.000135348
63 *59:34 *72:48 2.18821e-05
64 *70:48 *72:34 6.44644e-05
*RES
1 *581:Y *72:4 9.24915 
2 *72:4 *72:28 31.6651 
3 *72:28 *72:34 6.27777 
4 *72:34 *72:48 11.443 
5 *72:48 *662:A2_N 13.7491 
6 *72:48 *582:B 19.0935 
7 *72:34 *638:B1 17.4965 
8 *72:28 *877:A3 13.7491 
9 *72:4 *72:90 7.1625 
10 *72:90 *754:A2 13.7491 
11 *72:90 *792:B2 21.5904 
*END

*D_NET *73 0.000270218
*CONN
*I *583:A2 I *D sky130_fd_sc_hd__a21oi_1
*I *582:Y O *D sky130_fd_sc_hd__nand2_1
*CAP
1 *583:A2 5.50174e-05
2 *582:Y 5.50174e-05
3 *583:A2 *614:A2 3.44886e-05
4 *59:34 *583:A2 0.000125695
*RES
1 *582:Y *583:A2 29.7455 
*END

*D_NET *74 0.000622087
*CONN
*I *597:A2 I *D sky130_fd_sc_hd__o21ai_0
*I *583:Y O *D sky130_fd_sc_hd__a21oi_1
*CAP
1 *597:A2 0.000181346
2 *583:Y 0.000181346
3 *597:A2 *597:B1 4.55535e-05
4 *597:A2 *616:A1 4.90264e-05
5 *597:A2 *634:A1 0.000164815
*RES
1 *583:Y *597:A2 31.5781 
*END

*D_NET *75 0.00351066
*CONN
*I *588:A2 I *D sky130_fd_sc_hd__a31oi_1
*I *866:A I *D sky130_fd_sc_hd__xnor2_1
*I *593:A2 I *D sky130_fd_sc_hd__o21ai_0
*I *642:A2 I *D sky130_fd_sc_hd__o22ai_1
*I *584:Y O *D sky130_fd_sc_hd__nand2b_1
*CAP
1 *588:A2 0.000144929
2 *866:A 0.000731092
3 *593:A2 9.00197e-05
4 *642:A2 3.55482e-05
5 *584:Y 2.6853e-05
6 *75:30 0.000876021
7 *75:8 0.000145779
8 *75:6 4.70643e-05
9 *588:A2 *594:C1 1.07248e-05
10 *588:A2 *454:49 0.000181279
11 *593:A2 *83:38 2.16355e-05
12 *593:A2 *146:20 0.000136838
13 *593:A2 *454:49 0.000136838
14 *642:A2 *455:22 2.77625e-06
15 *866:A *149:14 1.904e-05
16 *866:A *454:49 1.5714e-05
17 *866:A *455:14 2.39398e-05
18 *75:6 *584:B 1.65872e-05
19 *584:A_N *642:A2 1.61631e-05
20 *584:A_N *75:6 4.88955e-05
21 *584:A_N *75:8 9.97706e-05
22 *631:B1 *588:A2 0.000204783
23 *631:B1 *866:A 1.5714e-05
24 *642:A1 *642:A2 2.16355e-05
25 *642:B2 *642:A2 0.000107496
26 *642:B2 *75:6 0.000107496
27 *642:B2 *75:8 0.000107496
28 *643:B1 *866:A 3.60485e-05
29 *30:41 *588:A2 6.08467e-05
30 *30:41 *593:A2 2.16355e-05
*RES
1 *584:Y *75:6 10.5271 
2 *75:6 *75:8 1.278 
3 *75:8 *642:A2 10.5271 
4 *75:8 *593:A2 21.635 
5 *75:6 *75:30 4.5 
6 *75:30 *866:A 23.0859 
7 *75:30 *588:A2 18.3808 
*END

*D_NET *76 0.000834776
*CONN
*P exp_out[7] O
*I *585:X O *D sky130_fd_sc_hd__clkdlybuf4s50_1
*CAP
1 exp_out[7] 0.000415802
2 *585:X 0.000415802
3 exp_out[7] *903:A_N 3.17192e-06
*RES
1 *585:X exp_out[7] 21.6862 
*END

*D_NET *77 0.00443553
*CONN
*I *594:B1 I *D sky130_fd_sc_hd__a222oi_1
*I *587:A2 I *D sky130_fd_sc_hd__o21bai_1
*I *672:B I *D sky130_fd_sc_hd__nand2_1
*I *652:B1 I *D sky130_fd_sc_hd__o21ai_0
*I *586:Y O *D sky130_fd_sc_hd__nor2_1
*CAP
1 *594:B1 0.000310264
2 *587:A2 0
3 *672:B 9.76668e-05
4 *652:B1 0.000295144
5 *586:Y 0.000128197
6 *77:34 0.000411023
7 *77:21 0.000344155
8 *77:8 0.000569071
9 *594:B1 *588:A3 8.61131e-05
10 *594:B1 *594:A1 1.89922e-06
11 *594:B1 *674:A1 0
12 *594:B1 *693:B 0.000133124
13 *594:B1 *867:A2 4.6697e-05
14 *594:B1 *79:10 0
15 *594:B1 *407:23 0.000109859
16 *652:B1 *647:A2 0
17 *652:B1 *103:10 0
18 *652:B1 *136:8 0
19 *652:B1 *422:14 0.000224381
20 *652:B1 *422:38 0
21 *652:B1 *457:125 0
22 *672:B *673:B1 6.08467e-05
23 *77:8 *536:A 2.16355e-05
24 *77:8 *586:A 1.43983e-05
25 *77:8 *455:66 2.77625e-06
26 *587:A1 *594:B1 1.03594e-05
27 *587:A1 *77:21 4.145e-05
28 *587:A1 *77:34 0.000194187
29 *588:A1 *594:B1 1.99858e-05
30 *631:B1 *594:B1 0
31 *649:A2 *652:B1 0.000258002
32 *649:A2 *77:21 0.000130099
33 *653:A1 *652:B1 0.000158107
34 *671:B1 *672:B 7.92757e-06
35 *672:A *672:B 5.10173e-06
36 *28:10 *77:21 2.9803e-05
37 *48:23 *652:B1 0.000233455
38 *48:23 *77:21 0.000245984
39 *48:23 *77:34 8.20728e-05
40 *48:44 *594:B1 2.81852e-05
41 *48:44 *77:34 0.00011815
42 *64:10 *594:B1 1.54112e-05
*RES
1 *586:Y *77:8 15.5817 
2 *77:8 *652:B1 24.1971 
3 *77:8 *77:21 5.15401 
4 *77:21 *672:B 16.0158 
5 *77:21 *77:34 3.90826 
6 *77:34 *587:A2 13.7491 
7 *77:34 *594:B1 21.6687 
*END

*D_NET *78 0.00102771
*CONN
*I *588:A3 I *D sky130_fd_sc_hd__a31oi_1
*I *587:Y O *D sky130_fd_sc_hd__o21bai_1
*CAP
1 *588:A3 0.000188343
2 *587:Y 0.000188343
3 *588:A3 *588:B1 2.16355e-05
4 *588:A3 *593:B1 3.75603e-05
5 *588:A3 *83:53 0.000260374
6 *588:A1 *588:A3 0.000158794
7 *594:B1 *588:A3 8.61131e-05
8 *642:B2 *588:A3 6.08467e-05
9 *30:41 *588:A3 2.56976e-05
*RES
1 *587:Y *588:A3 33.9239 
*END

*D_NET *79 0.00389711
*CONN
*I *616:A1 I *D sky130_fd_sc_hd__a21oi_1
*I *596:A1 I *D sky130_fd_sc_hd__a21oi_1
*I *588:Y O *D sky130_fd_sc_hd__a31oi_1
*CAP
1 *616:A1 0.00037085
2 *596:A1 1.47608e-05
3 *588:Y 0.000391473
4 *79:10 0.000777084
5 *596:A1 *634:A1 6.08467e-05
6 *616:A1 *596:A2 7.09666e-06
7 *616:A1 *597:B1 0
8 *616:A1 *616:B1 6.27782e-05
9 *616:A1 *626:A2 6.27782e-05
10 *616:A1 *634:A1 0.000177787
11 *616:A1 *88:12 9.11867e-05
12 *616:A1 *407:23 0
13 *616:A1 *417:36 3.33495e-05
14 *616:A1 *417:51 0.000561194
15 *616:A1 *457:105 5.95249e-06
16 *79:10 *596:A2 0.000469513
17 *79:10 *596:B1 0.000131585
18 *79:10 *81:14 1.89331e-05
19 *79:10 *407:23 0
20 *594:B1 *79:10 0
21 *597:A2 *616:A1 4.90264e-05
22 *631:B1 *79:10 0.000444256
23 *633:A *616:A1 1.31711e-05
24 *633:A *79:10 2.33675e-05
25 *30:41 *79:10 6.92705e-05
26 *30:228 *596:A1 6.08467e-05
*RES
1 *588:Y *79:10 27.1011 
2 *79:10 *596:A1 14.4725 
3 *79:10 *616:A1 27.9316 
*END

*D_NET *80 0.00406488
*CONN
*I *757:A2 I *D sky130_fd_sc_hd__a21oi_1
*I *630:B1 I *D sky130_fd_sc_hd__o21ai_0
*I *594:A2 I *D sky130_fd_sc_hd__a222oi_1
*I *589:Y O *D sky130_fd_sc_hd__nor2_1
*CAP
1 *757:A2 0.000380047
2 *630:B1 0.00015081
3 *594:A2 4.07076e-05
4 *589:Y 0
5 *80:10 0.000731214
6 *80:4 0.000919743
7 *594:A2 *674:A1 2.16355e-05
8 *630:B1 *675:D1 7.04109e-05
9 *630:B1 *457:115 0.000175477
10 *630:B1 *457:117 4.70104e-05
11 *757:A2 *693:A 4.22012e-05
12 *757:A2 *693:C 0.000263971
13 *80:10 *674:B1 0.000384406
14 *80:10 *693:B 3.10304e-06
15 *80:10 *457:117 0.000291568
16 *80:10 *457:119 0.000123331
17 *541:A *80:10 0.000110949
18 *589:B *757:A2 2.99733e-05
19 *589:B *80:10 1.78942e-05
20 *630:A1 *630:B1 0.000110458
21 *675:C1 *630:B1 2.57365e-05
22 *37:64 *630:B1 1.09441e-05
23 *37:103 *757:A2 5.90501e-05
24 *37:114 *757:A2 2.58616e-05
25 *48:48 *630:B1 1.75625e-05
26 *48:48 *80:10 5.66868e-06
27 *59:36 *630:B1 5.1493e-06
*RES
1 *589:Y *80:4 9.24915 
2 *80:4 *80:10 17.3057 
3 *80:10 *594:A2 14.5931 
4 *80:10 *630:B1 18.5201 
5 *80:4 *757:A2 17.2306 
*END

*D_NET *81 0.00768549
*CONN
*I *662:B1 I *D sky130_fd_sc_hd__a2bb2oi_1
*I *631:A2 I *D sky130_fd_sc_hd__a21oi_1
*I *816:A2 I *D sky130_fd_sc_hd__a31oi_1
*I *665:B1 I *D sky130_fd_sc_hd__a21oi_1
*I *594:B2 I *D sky130_fd_sc_hd__a222oi_1
*I *867:A2 I *D sky130_fd_sc_hd__o221ai_1
*I *590:Y O *D sky130_fd_sc_hd__nor2b_1
*CAP
1 *662:B1 0.000175626
2 *631:A2 0.00010191
3 *816:A2 0.000157525
4 *665:B1 0
5 *594:B2 0
6 *867:A2 0.000340869
7 *590:Y 0
8 *81:66 0.000394753
9 *81:48 0.000952592
10 *81:38 0.000932242
11 *81:14 0.00047528
12 *81:6 0.000154369
13 *631:A2 *457:228 0.000203756
14 *662:B1 *662:A1_N 0.00012957
15 *662:B1 *664:B1 7.23857e-05
16 *816:A2 *665:A2 6.27718e-05
17 *816:A2 *726:A1 3.5063e-05
18 *816:A2 *431:24 1.84673e-05
19 *867:A2 *594:A1 2.05972e-05
20 *867:A2 *594:C1 0.000211492
21 *867:A2 *867:B1 1.55025e-05
22 *867:A2 *83:14 3.8122e-05
23 *867:A2 *146:20 0.000115269
24 *867:A2 *454:34 7.92757e-06
25 *81:14 *594:A1 3.99302e-06
26 *81:14 *596:A2 3.2648e-05
27 *81:14 *407:23 1.55462e-05
28 *81:38 *596:A2 5.70488e-06
29 *81:38 *457:115 1.85244e-05
30 *81:48 *95:44 3.85679e-05
31 *81:48 *158:26 1.2128e-05
32 *81:48 *422:44 9.20451e-05
33 *81:66 *457:115 0.000176122
34 *594:B1 *867:A2 4.6697e-05
35 *594:C2 *867:A2 5.65864e-05
36 *594:C2 *81:14 0.000110881
37 *594:C2 *81:38 3.85446e-05
38 *594:C2 *81:66 0.000185563
39 *631:B1 *631:A2 6.08467e-05
40 *726:B2 *816:A2 2.16355e-05
41 *726:B2 *81:48 2.99506e-05
42 *749:C1 *81:48 0.000218315
43 *816:A1 *816:A2 0.000202719
44 *867:A1 *867:A2 6.08467e-05
45 *20:70 *631:A2 1.15389e-05
46 *20:70 *662:B1 0.000414601
47 *30:41 *867:A2 2.07365e-05
48 *30:276 *81:48 2.57465e-06
49 *38:88 *867:A2 1.15389e-05
50 *38:96 *867:A2 0.000253403
51 *56:86 *867:A2 0.000152131
52 *56:141 *81:48 0.000756083
53 *79:10 *81:14 1.89331e-05
*RES
1 *590:Y *81:6 13.7491 
2 *81:6 *81:14 8.22083 
3 *81:14 *867:A2 29.6098 
4 *81:14 *594:B2 9.24915 
5 *81:6 *81:38 0.793864 
6 *81:38 *81:48 14.0701 
7 *81:48 *665:B1 9.24915 
8 *81:48 *816:A2 13.8789 
9 *81:38 *81:66 8.20063 
10 *81:66 *631:A2 12.191 
11 *81:66 *662:B1 15.7356 
*END

*D_NET *82 0.000325945
*CONN
*P exp_out[6] O
*I *591:X O *D sky130_fd_sc_hd__clkdlybuf4s50_1
*CAP
1 exp_out[6] 0.000162973
2 *591:X 0.000162973
3 exp_out[6] exp_out[3] 0
*RES
1 *591:X exp_out[6] 16.7004 
*END

*D_NET *83 0.0185417
*CONN
*I *849:A2 I *D sky130_fd_sc_hd__a21oi_1
*I *815:B1 I *D sky130_fd_sc_hd__a21oi_1
*I *777:A2 I *D sky130_fd_sc_hd__o221ai_1
*I *640:B1 I *D sky130_fd_sc_hd__o22ai_1
*I *593:B1 I *D sky130_fd_sc_hd__o21ai_0
*I *867:B1 I *D sky130_fd_sc_hd__o221ai_1
*I *642:B1 I *D sky130_fd_sc_hd__o22ai_1
*I *592:Y O *D sky130_fd_sc_hd__nand2b_1
*CAP
1 *849:A2 0.00091816
2 *815:B1 0.000115386
3 *777:A2 0.000396867
4 *640:B1 0.000601027
5 *593:B1 2.18897e-05
6 *867:B1 0.000109483
7 *642:B1 8.60632e-05
8 *592:Y 0.000543104
9 *83:91 0.00135589
10 *83:59 0.00140105
11 *83:53 0.00193487
12 *83:38 0.00135771
13 *83:14 0.000315679
14 *83:12 0.000789683
15 *640:B1 *641:B1 6.78514e-06
16 *640:B1 *747:B 3.3901e-06
17 *640:B1 *777:B1 1.71698e-05
18 *640:B1 *779:A 5.26705e-05
19 *640:B1 *881:B1 0.000166263
20 *640:B1 *129:16 0.000335664
21 *777:A2 *774:A1 3.82228e-05
22 *777:A2 *777:C1 0.000113107
23 *777:A2 *262:10 0.000115103
24 *777:A2 *265:12 3.88655e-06
25 *815:B1 *744:B 2.16355e-05
26 *815:B1 *815:A2 0.000154145
27 *815:B1 *816:B1 7.92757e-06
28 *849:A2 *543:B1 0.000226955
29 *849:A2 *627:A 0
30 *849:A2 *744:B 5.16085e-05
31 *849:A2 *746:C1 7.13655e-06
32 *849:A2 *749:A2 6.22114e-05
33 *849:A2 *749:B1 2.12995e-05
34 *849:A2 *817:A1 0.000240279
35 *849:A2 *837:B1 0.000122098
36 *849:A2 *849:B1 0.000162739
37 *849:A2 *850:B1 7.08723e-06
38 *849:A2 *189:14 0
39 *849:A2 *310:16 0.000327461
40 *849:A2 *454:398 6.85861e-07
41 *867:B1 *454:18 0
42 *83:12 *592:A_N 2.74378e-05
43 *83:12 *643:A2 0.000107801
44 *83:12 *659:A1 0.000345016
45 *83:12 *659:A2 3.93047e-05
46 *83:12 *138:103 7.23866e-05
47 *83:12 *146:20 0.000273044
48 *83:12 *454:53 6.84784e-06
49 *83:12 *455:22 7.32313e-05
50 *83:12 *455:40 5.23577e-05
51 *83:12 *455:47 0.000158371
52 *83:53 *588:B1 2.71504e-05
53 *83:53 *694:A 0.000801396
54 *83:59 *687:A1 0
55 *83:59 *779:A 0.000183022
56 *83:59 *881:B1 9.20447e-05
57 *83:59 *107:18 6.93171e-05
58 *83:59 *265:12 0.000476511
59 *83:91 *744:B 0.000118847
60 *83:91 *814:B 1.48717e-05
61 *83:91 *817:A1 0.000152666
62 *83:91 *821:A2 2.29386e-05
63 *83:91 *107:18 0
64 *83:91 *265:12 0.000187299
65 *550:B1 *849:A2 0.00010072
66 *557:A *83:59 0
67 *573:A *83:53 3.31745e-05
68 *588:A3 *593:B1 3.75603e-05
69 *588:A3 *83:53 0.000260374
70 *592:B *83:12 0.000254532
71 *593:A2 *83:38 2.16355e-05
72 *680:A *640:B1 3.76047e-05
73 *680:A *777:A2 5.51483e-06
74 *680:B_N *777:A2 3.07848e-05
75 *686:B *83:53 0.000183715
76 *744:A *815:B1 6.27782e-05
77 *746:A1 *849:A2 7.16734e-05
78 *850:A1 *849:A2 5.71024e-05
79 *850:A2 *849:A2 0.00034542
80 *867:A1 *83:14 1.00846e-05
81 *867:A1 *83:38 2.41274e-06
82 *867:A2 *867:B1 1.55025e-05
83 *867:A2 *83:14 3.8122e-05
84 *867:B2 *867:B1 1.05106e-05
85 *30:18 *642:B1 0
86 *30:32 *867:B1 1.78942e-05
87 *30:41 *867:B1 2.32625e-05
88 *30:41 *83:38 6.7671e-06
89 *30:41 *83:53 3.57011e-05
90 *30:54 *83:53 1.34424e-05
91 *37:126 *83:59 6.48766e-05
92 *37:126 *83:91 0.000138244
93 *37:137 *849:A2 3.27606e-06
94 *37:137 *83:91 3.64497e-06
95 *37:270 *849:A2 0.000124081
96 *37:278 *849:A2 3.54949e-06
97 *37:289 *849:A2 3.93978e-05
98 *38:159 *815:B1 0.000107496
99 *38:174 *815:B1 0.000297054
100 *40:225 *777:A2 0.000107434
101 *40:249 *777:A2 4.80576e-05
102 *49:23 *83:91 1.99266e-05
103 *49:95 *849:A2 0.000200233
104 *56:86 *642:B1 0.000114563
105 *56:86 *83:12 5.66134e-05
106 *62:12 *83:12 2.27085e-05
*RES
1 *592:Y *83:12 36.311 
2 *83:12 *83:14 1.8326 
3 *83:14 *642:B1 20.4964 
4 *83:14 *867:B1 12.6491 
5 *83:12 *83:38 1.8326 
6 *83:38 *593:B1 10.2378 
7 *83:38 *83:53 30.9281 
8 *83:53 *83:59 12.7018 
9 *83:59 *640:B1 25.1995 
10 *83:59 *777:A2 29.9074 
11 *83:53 *83:91 10.137 
12 *83:91 *815:B1 18.3548 
13 *83:91 *849:A2 43.8533 
*END

*D_NET *84 0.000712155
*CONN
*I *594:C1 I *D sky130_fd_sc_hd__a222oi_1
*I *593:Y O *D sky130_fd_sc_hd__o21ai_0
*CAP
1 *594:C1 0.000100098
2 *593:Y 0.000100098
3 *594:C1 *594:A1 5.73392e-05
4 *594:C1 *454:49 0.000122083
5 *588:A2 *594:C1 1.07248e-05
6 *631:B1 *594:C1 4.52469e-05
7 *867:A2 *594:C1 0.000211492
8 *38:88 *594:C1 6.50727e-05
*RES
1 *593:Y *594:C1 32.1327 
*END

*D_NET *85 0.00143705
*CONN
*I *596:A2 I *D sky130_fd_sc_hd__a21oi_1
*I *594:Y O *D sky130_fd_sc_hd__a222oi_1
*CAP
1 *596:A2 0.000324584
2 *594:Y 0.000324584
3 *596:A2 *457:105 6.01191e-05
4 *596:A2 *457:115 0.000212805
5 *616:A1 *596:A2 7.09666e-06
6 *79:10 *596:A2 0.000469513
7 *81:14 *596:A2 3.2648e-05
8 *81:38 *596:A2 5.70488e-06
*RES
1 *594:Y *596:A2 37.5376 
*END

*D_NET *86 0.0111663
*CONN
*I *902:B1_N I *D sky130_fd_sc_hd__o21bai_1
*I *658:B I *D sky130_fd_sc_hd__nor2_1
*I *596:B1 I *D sky130_fd_sc_hd__a21oi_1
*I *595:Y O *D sky130_fd_sc_hd__nand2_1
*CAP
1 *902:B1_N 0.00105378
2 *658:B 2.28887e-05
3 *596:B1 0.000613188
4 *595:Y 0
5 *86:10 0.001824
6 *86:4 0.0022417
7 *596:B1 *614:A2 0.000121419
8 *596:B1 *148:12 5.75713e-05
9 *902:B1_N *528:A2 1.92336e-05
10 *902:B1_N *529:B 2.36743e-05
11 *902:B1_N *564:B 1.19721e-05
12 *902:B1_N *595:A 6.08467e-05
13 *902:B1_N *405:44 2.97286e-05
14 *902:B1_N *461:36 0.000551758
15 *86:10 *524:B 4.44372e-05
16 *86:10 *564:B 1.19856e-05
17 *86:10 *595:B 1.41976e-05
18 *86:10 *614:A2 0.000688999
19 *86:10 *621:B 6.62977e-05
20 *86:10 *713:A_N 0.000115223
21 *86:10 *823:A1 8.6297e-06
22 *86:10 *98:12 5.52038e-05
23 *86:10 *422:158 0.000101608
24 *86:10 *457:70 0.000111358
25 *86:10 *457:72 0.000187156
26 *86:10 *457:74 3.21591e-05
27 *86:10 *457:76 0.000352628
28 *86:10 *457:82 0.000212491
29 *528:B1 *902:B1_N 3.76697e-05
30 *529:A *902:B1_N 4.87301e-05
31 *529:C *902:B1_N 0.000267382
32 *530:B1 *902:B1_N 1.68951e-06
33 *559:A *596:B1 0
34 *612:A1 *86:10 0
35 *619:A1 *86:10 0
36 *619:B1 *86:10 1.27831e-06
37 *633:A *596:B1 0.000139636
38 *920:D *86:10 0
39 *20:70 *596:B1 0.000632756
40 *30:243 *658:B 0.00011818
41 *30:243 *86:10 0
42 *32:82 *86:10 7.7321e-05
43 *32:151 *658:B 3.80105e-05
44 *40:16 *86:10 0.000324605
45 *40:26 *86:10 0.000140365
46 *50:26 *86:10 0.000331211
47 *51:173 *86:10 2.27901e-06
48 *57:140 *902:B1_N 0.000239475
49 *59:20 *86:10 0
50 *59:28 *86:10 0
51 *79:10 *596:B1 0.000131585
*RES
1 *595:Y *86:4 9.24915 
2 *86:4 *86:10 44.4281 
3 *86:10 *596:B1 35.4528 
4 *86:10 *658:B 15.0271 
5 *86:4 *902:B1_N 31.2404 
*END

*D_NET *87 0.00159288
*CONN
*I *597:B1 I *D sky130_fd_sc_hd__o21ai_0
*I *596:Y O *D sky130_fd_sc_hd__a21oi_1
*CAP
1 *597:B1 0.00022319
2 *596:Y 0.00022319
3 *597:B1 *634:A1 2.21765e-05
4 *597:B1 *407:23 0.000390164
5 *597:B1 *457:105 0.000187798
6 *597:A2 *597:B1 4.55535e-05
7 *616:A1 *597:B1 0
8 *30:228 *597:B1 0.000250405
9 *32:151 *597:B1 0.000250405
*RES
1 *596:Y *597:B1 37.6704 
*END

*D_NET *88 0.00358021
*CONN
*I *612:A2 I *D sky130_fd_sc_hd__a31oi_1
*I *597:Y O *D sky130_fd_sc_hd__o21ai_0
*CAP
1 *612:A2 0
2 *597:Y 0.00091879
3 *88:12 0.00091879
4 *88:12 *569:A2 1.90218e-05
5 *88:12 *611:A2 0.000286155
6 *88:12 *612:A3 0.000268831
7 *88:12 *615:A1 2.18679e-05
8 *88:12 *626:A2 3.17869e-05
9 *88:12 *89:53 0
10 *88:12 *407:10 0.000123915
11 *88:12 *407:23 0.000187439
12 *88:12 *417:51 1.6373e-05
13 *575:B1 *88:12 9.18559e-06
14 *616:A1 *88:12 9.11867e-05
15 *619:A1 *88:12 0
16 *27:23 *88:12 4.20184e-06
17 *56:23 *88:12 2.91161e-05
18 *57:90 *88:12 0.000522775
19 *59:20 *88:12 0.000130777
*RES
1 *597:Y *88:12 46.9654 
2 *88:12 *612:A2 9.24915 
*END

*D_NET *89 0.00845114
*CONN
*I *614:A1 I *D sky130_fd_sc_hd__o21ai_0
*I *823:A1 I *D sky130_fd_sc_hd__a21oi_1
*I *601:B I *D sky130_fd_sc_hd__nand2_1
*I *602:A2 I *D sky130_fd_sc_hd__o21ai_0
*I *600:A2 I *D sky130_fd_sc_hd__o21ai_0
*I *623:A2 I *D sky130_fd_sc_hd__a31oi_1
*I *615:A2 I *D sky130_fd_sc_hd__o311ai_0
*I *598:X O *D sky130_fd_sc_hd__or2_0
*CAP
1 *614:A1 0
2 *823:A1 0.000805095
3 *601:B 4.74602e-05
4 *602:A2 1.88823e-05
5 *600:A2 1.69944e-05
6 *623:A2 5.44255e-05
7 *615:A2 0.000472841
8 *598:X 0.000622548
9 *89:78 0.00090962
10 *89:53 0.000247665
11 *89:16 0.000601828
12 *89:14 0.000314135
13 *89:10 0.000921924
14 *600:A2 *569:A2 0.000111722
15 *600:A2 *454:334 6.50727e-05
16 *600:A2 *454:345 6.92705e-05
17 *601:B *602:A1 0.000117123
18 *601:B *602:B1 6.08467e-05
19 *602:A2 *602:A1 1.65872e-05
20 *602:A2 *603:B1 2.58757e-05
21 *615:A2 *616:B1 0.00018473
22 *615:A2 *623:A3 0.000188503
23 *615:A2 *626:A1 0.000110458
24 *615:A2 *417:51 7.60235e-05
25 *623:A2 *623:A3 5.04829e-06
26 *823:A1 *552:A 3.54295e-05
27 *823:A1 *618:A 9.5201e-06
28 *823:A1 *618:B 3.00036e-05
29 *823:A1 *619:A2 0.000154145
30 *823:A1 *622:A1 0.000205527
31 *823:A1 *622:B1 6.27782e-05
32 *823:A1 *713:A_N 9.09456e-05
33 *823:A1 *310:16 1.67179e-05
34 *89:10 *598:A 1.43848e-05
35 *89:10 *455:456 7.92757e-06
36 *89:14 *524:A 1.5254e-05
37 *89:14 *569:A2 1.09738e-05
38 *89:14 *603:A2 7.50872e-05
39 *89:16 *524:A 3.31882e-05
40 *89:16 *569:A2 1.25165e-05
41 *89:16 *623:A3 4.02517e-05
42 *89:16 *417:51 5.63621e-05
43 *89:16 *454:330 6.28227e-05
44 *89:53 *524:A 8.84112e-05
45 *89:53 *524:B 5.06714e-05
46 *89:53 *603:A2 4.70104e-05
47 *89:53 *611:A2 0
48 *89:78 *615:B1 1.9898e-05
49 *89:78 *616:A2 5.481e-05
50 *89:78 *616:B1 0.000107496
51 *89:78 *725:A2 0.000156076
52 *558:B1 *823:A1 2.32553e-05
53 *603:A1 *89:10 0.000582522
54 *619:B1 *823:A1 0.000113104
55 *623:A1 *623:A2 3.99086e-06
56 *823:B1 *823:A1 0.000114271
57 *27:23 *89:53 1.05746e-05
58 *44:8 *823:A1 6.27782e-05
59 *51:173 *823:A1 9.12416e-06
60 *86:10 *823:A1 8.6297e-06
61 *88:12 *89:53 0
*RES
1 *598:X *89:10 23.9249 
2 *89:10 *89:14 2.98005 
3 *89:14 *89:16 4.73876 
4 *89:16 *615:A2 21.8478 
5 *89:16 *623:A2 14.4725 
6 *89:14 *600:A2 15.0271 
7 *89:10 *89:53 9.72729 
8 *89:53 *602:A2 9.97254 
9 *89:53 *601:B 11.1059 
10 *615:A2 *89:78 12.7697 
11 *89:78 *823:A1 32.3119 
12 *89:78 *614:A1 9.24915 
*END

*D_NET *90 0.000965252
*CONN
*P exp_out[5] O
*I *599:X O *D sky130_fd_sc_hd__clkdlybuf4s50_1
*CAP
1 exp_out[5] 0.000419417
2 *599:X 0.000419417
3 exp_out[5] *429:29 1.00766e-05
4 exp_out[5] *429:35 0.000101958
5 exp_out[5] *429:72 1.43832e-05
*RES
1 *599:X exp_out[5] 22.2408 
*END

*D_NET *91 0.000797291
*CONN
*I *603:A2 I *D sky130_fd_sc_hd__a22o_1
*I *600:Y O *D sky130_fd_sc_hd__o21ai_0
*CAP
1 *603:A2 0.000181567
2 *600:Y 0.000181567
3 *603:A2 *524:A 0.000125695
4 *603:A2 *569:A2 0.000164829
5 *603:A2 *454:345 2.15348e-05
6 *89:14 *603:A2 7.50872e-05
7 *89:53 *603:A2 4.70104e-05
*RES
1 *600:Y *603:A2 32.1327 
*END

*D_NET *92 0.000179804
*CONN
*I *602:B1 I *D sky130_fd_sc_hd__o21ai_0
*I *601:Y O *D sky130_fd_sc_hd__nand2_1
*CAP
1 *602:B1 3.61272e-05
2 *601:Y 3.61272e-05
3 *602:B1 *524:B 2.58757e-05
4 *602:B1 *602:A1 2.08274e-05
5 *601:B *602:B1 6.08467e-05
*RES
1 *601:Y *602:B1 19.7763 
*END

*D_NET *93 0.000598233
*CONN
*I *603:B1 I *D sky130_fd_sc_hd__a22o_1
*I *602:Y O *D sky130_fd_sc_hd__o21ai_0
*CAP
1 *603:B1 0.000136806
2 *602:Y 0.000136806
3 *603:B1 *524:A 0.000147065
4 *603:B1 *602:A1 3.99086e-06
5 *603:B1 *453:30 0.00014769
6 *602:A2 *603:B1 2.58757e-05
*RES
1 *602:Y *603:B1 31.4388 
*END

*D_NET *94 0.00117808
*CONN
*I *611:A2 I *D sky130_fd_sc_hd__a211o_1
*I *603:X O *D sky130_fd_sc_hd__a22o_1
*CAP
1 *611:A2 0.00026746
2 *603:X 0.00026746
3 *611:A2 *524:B 1.60687e-05
4 *601:A *611:A2 5.23435e-05
5 *20:12 *611:A2 0.000175485
6 *56:23 *611:A2 0.00011311
7 *88:12 *611:A2 0.000286155
8 *89:53 *611:A2 0
*RES
1 *603:X *611:A2 34.9002 
*END

*D_NET *95 0.0261016
*CONN
*I *871:B2 I *D sky130_fd_sc_hd__o221ai_1
*I *847:A1 I *D sky130_fd_sc_hd__o211ai_1
*I *857:B2 I *D sky130_fd_sc_hd__o22ai_1
*I *736:C1 I *D sky130_fd_sc_hd__o211ai_1
*I *708:A1 I *D sky130_fd_sc_hd__o2111ai_1
*I *622:B1 I *D sky130_fd_sc_hd__a21oi_1
*I *607:B I *D sky130_fd_sc_hd__nor3_1
*I *668:A2 I *D sky130_fd_sc_hd__a21boi_0
*I *815:A2 I *D sky130_fd_sc_hd__a21oi_1
*I *670:B1 I *D sky130_fd_sc_hd__a221oi_1
*I *884:B I *D sky130_fd_sc_hd__nor3b_1
*I *604:Y O *D sky130_fd_sc_hd__nand2b_1
*CAP
1 *871:B2 0
2 *847:A1 0.00050293
3 *857:B2 0.000702139
4 *736:C1 3.77976e-05
5 *708:A1 0
6 *622:B1 0.000231565
7 *607:B 0
8 *668:A2 0
9 *815:A2 0.000159194
10 *670:B1 0.000330127
11 *884:B 0.000813807
12 *604:Y 0.000109223
13 *95:153 0.000855828
14 *95:149 0.00099848
15 *95:143 0.000615736
16 *95:124 0.00151207
17 *95:89 0.00177672
18 *95:76 0.000684004
19 *95:57 0.000614511
20 *95:44 0.000642803
21 *95:27 0.000977307
22 *95:8 0.00128628
23 *622:B1 *618:B 3.26125e-05
24 *622:B1 *871:A2 0.000338007
25 *622:B1 *98:12 1.94614e-05
26 *622:B1 *107:69 4.69495e-06
27 *670:B1 *674:A2 1.37189e-05
28 *815:A2 *816:B1 1.65872e-05
29 *847:A1 *844:A2 3.74158e-05
30 *847:A1 *454:432 0.000106778
31 *847:A1 *454:456 6.3657e-05
32 *857:B2 *731:C 1.41976e-05
33 *857:B2 *732:B1 6.2164e-05
34 *857:B2 *735:A2 0.000143963
35 *857:B2 *736:B1 5.6384e-05
36 *857:B2 *738:B1 0.000200632
37 *857:B2 *840:C 7.54269e-06
38 *857:B2 *857:B1 6.36477e-05
39 *857:B2 *858:B1 3.54024e-05
40 *857:B2 *217:27 0.000184437
41 *857:B2 *218:20 0.000263426
42 *857:B2 *226:24 0.000110605
43 *884:B *684:A2 0.000158637
44 *884:B *855:A 0.00051727
45 *884:B *878:A2 7.1663e-05
46 *884:B *879:A2 0.000977313
47 *884:B *879:B1 6.08467e-05
48 *884:B *131:20 0.000346503
49 *884:B *165:6 0.000114584
50 *884:B *244:14 1.41976e-05
51 *884:B *455:141 0.000437041
52 *884:B *455:220 4.79321e-06
53 *95:8 *685:D1 3.31745e-05
54 *95:8 *455:113 0.000107496
55 *95:27 *684:A2 0.000507342
56 *95:27 *694:B 0.000121835
57 *95:27 *726:A2 1.61918e-05
58 *95:27 *131:20 5.571e-05
59 *95:27 *419:28 3.23076e-06
60 *95:44 *684:A2 1.92531e-05
61 *95:44 *726:A2 0.000186194
62 *95:44 *726:B1 4.86868e-05
63 *95:44 *158:26 4.51619e-05
64 *95:76 *558:A2 3.31745e-05
65 *95:76 *607:A 2.16355e-05
66 *95:76 *725:A3 3.96023e-05
67 *95:76 *726:B1 0.000235308
68 *95:89 *543:B1 0
69 *95:89 *558:A2 0.000339029
70 *95:89 *622:A1 1.5714e-05
71 *95:89 *705:A3 0.000307567
72 *95:89 *98:12 1.24886e-05
73 *95:124 *518:A2 0.000154145
74 *95:124 *518:B1 0.000216883
75 *95:124 *622:A1 0.000130915
76 *95:124 *705:A3 0.000143819
77 *95:124 *708:A2 3.0332e-05
78 *95:124 *709:B1 9.25383e-05
79 *95:124 *719:C1 0
80 *95:124 *739:B1 2.16355e-05
81 *95:124 *740:B1 4.36818e-05
82 *95:124 *196:28 2.51527e-05
83 *95:124 *385:80 6.50586e-05
84 *95:124 *385:101 4.66492e-05
85 *95:124 *454:355 0.000485889
86 *95:143 *719:B2 0.000270139
87 *95:143 *861:A2 1.9101e-05
88 *95:143 *871:B1 4.2266e-05
89 *95:143 *196:28 9.75243e-05
90 *95:143 *204:69 1.40709e-05
91 *95:143 *357:18 0.000128078
92 *95:149 *724:A1 6.14682e-06
93 *95:149 *825:A2 1.86611e-05
94 *95:149 *871:B1 9.12416e-06
95 *95:153 *225:12 0.000185159
96 *95:153 *226:24 0.000247422
97 *583:A1 *857:B2 6.50586e-05
98 *668:A1 *95:44 3.20407e-05
99 *668:A1 *95:57 0.000349291
100 *676:B *884:B 1.83758e-05
101 *680:A *884:B 0.000498547
102 *706:B2 *95:76 9.55339e-05
103 *708:D1 *95:124 0.000107627
104 *708:D1 *95:143 0.000107496
105 *709:A2 *622:B1 3.2258e-05
106 *724:B1 *847:A1 7.90842e-05
107 *724:B1 *95:149 0.000163571
108 *726:B2 *95:44 0.000100007
109 *726:B2 *95:57 0.000176694
110 *731:A *857:B2 6.36477e-05
111 *732:A1 *857:B2 5.04829e-06
112 *739:A2 *95:124 1.37189e-05
113 *739:C1 *95:124 5.81204e-05
114 *815:B1 *815:A2 0.000154145
115 *823:A1 *622:B1 6.27782e-05
116 *846:B *847:A1 3.17103e-05
117 *871:A1 *95:143 9.12416e-06
118 *871:A1 *95:149 0.00010197
119 *878:A1 *884:B 5.13151e-05
120 *878:B1 *884:B 0.000122378
121 *918:D *95:44 2.8256e-05
122 *26:24 *847:A1 2.36617e-05
123 *26:55 *815:A2 0.000357929
124 *30:255 *95:57 0.00014158
125 *30:255 *95:76 3.31733e-05
126 *30:268 *95:57 1.09644e-05
127 *30:276 *95:44 1.11816e-05
128 *34:31 *95:76 5.04537e-05
129 *37:52 *670:B1 0.000263189
130 *37:52 *95:27 0
131 *38:60 *670:B1 9.51132e-06
132 *38:159 *815:A2 9.95234e-05
133 *40:60 *95:124 3.31223e-05
134 *40:85 *95:124 1.49118e-06
135 *40:278 *884:B 0.000102166
136 *40:284 *884:B 4.7918e-05
137 *48:108 *670:B1 5.73392e-05
138 *48:108 *95:27 4.58003e-05
139 *51:154 *95:89 0.000109421
140 *51:173 *95:89 3.29116e-05
141 *56:342 *95:153 0
142 *59:307 *95:143 0.000103846
143 *59:317 *95:143 2.00422e-05
144 *59:317 *95:149 2.57465e-06
145 *71:12 *857:B2 5.51483e-06
146 *81:48 *95:44 3.85679e-05
*RES
1 *604:Y *95:8 16.1364 
2 *95:8 *884:B 44.605 
3 *95:8 *95:27 15.4998 
4 *95:27 *670:B1 14.9881 
5 *95:27 *95:44 12.6341 
6 *95:44 *815:A2 19.4881 
7 *95:44 *95:57 6.81502 
8 *95:57 *668:A2 13.7491 
9 *95:57 *95:76 15.1995 
10 *95:76 *607:B 9.24915 
11 *95:76 *95:89 13.6581 
12 *95:89 *622:B1 22.0976 
13 *95:89 *95:124 31.2663 
14 *95:124 *708:A1 9.24915 
15 *95:124 *95:143 16.5354 
16 *95:143 *95:149 11.3529 
17 *95:149 *95:153 9.23876 
18 *95:153 *736:C1 14.4819 
19 *95:153 *857:B2 40.6582 
20 *95:149 *847:A1 26.7658 
21 *95:143 *871:B2 13.7491 
*END

*D_NET *96 0.00185685
*CONN
*P exp_out[4] O
*I *605:X O *D sky130_fd_sc_hd__clkdlybuf4s50_1
*CAP
1 exp_out[4] 0.000440189
2 *605:X 0.000440189
3 exp_out[4] *909:A 0.000294899
4 *890:A0 exp_out[4] 0.000439687
5 *929:D exp_out[4] 0.000104731
6 *20:96 exp_out[4] 0.000137157
*RES
1 *605:X exp_out[4] 25.9522 
*END

*D_NET *97 0.0219791
*CONN
*I *830:A1 I *D sky130_fd_sc_hd__a22oi_1
*I *607:C I *D sky130_fd_sc_hd__nor3_1
*I *747:A I *D sky130_fd_sc_hd__nor2_1
*I *756:A1 I *D sky130_fd_sc_hd__a31oi_1
*I *606:Y O *D sky130_fd_sc_hd__nand2_1
*CAP
1 *830:A1 0.000921144
2 *607:C 0.00303307
3 *747:A 0.000323202
4 *756:A1 6.49171e-05
5 *606:Y 0.000545433
6 *97:33 0.00506564
7 *97:16 0.00227104
8 *97:10 0.00196333
9 *607:C *574:A1 4.32816e-05
10 *607:C *705:A3 4.62586e-06
11 *607:C *237:34 0.00063496
12 *747:A *131:20 1.91391e-05
13 *747:A *138:20 0.000348185
14 *747:A *454:88 0
15 *756:A1 *756:A2 8.65358e-05
16 *756:A1 *397:16 0.000370815
17 *830:A1 *830:A2 6.92075e-05
18 *830:A1 *126:69 0
19 *830:A1 *233:25 0.00020945
20 *830:A1 *317:10 6.20345e-05
21 *97:10 *126:69 0
22 *97:16 *723:A1 1.43848e-05
23 *97:16 *397:16 4.41269e-05
24 *97:33 *679:A 0.000634305
25 *97:33 *681:B 3.83715e-05
26 *97:33 *689:A2 0.000285035
27 *97:33 *799:B1 7.24084e-05
28 *97:33 *858:A2 2.72989e-05
29 *97:33 *876:B 0.000746977
30 *97:33 *138:20 4.35222e-05
31 *97:33 *168:14 0.000153992
32 *97:33 *455:164 0.000722301
33 *97:33 *455:555 0.000130515
34 *490:A *97:16 6.50586e-05
35 *558:A1 *607:C 2.02035e-05
36 *606:A *97:10 2.57986e-05
37 *706:B2 *607:C 0.000244418
38 *709:A2 *607:C 3.88389e-05
39 *754:A1 *756:A1 1.53573e-05
40 *754:A1 *97:16 6.92705e-05
41 *754:B1 *756:A1 6.92705e-05
42 *789:B *97:33 4.19864e-05
43 *32:16 *830:A1 0.000366622
44 *40:225 *97:33 0.000138835
45 *40:381 *97:33 2.33103e-06
46 *41:12 *97:33 6.85532e-05
47 *44:18 *607:C 7.29623e-05
48 *51:154 *607:C 8.36586e-06
49 *56:189 *747:A 0.000351491
50 *56:189 *97:33 6.88205e-06
51 *56:416 *830:A1 0.000766466
52 *56:422 *830:A1 0.000552991
53 *72:28 *97:33 9.94918e-05
54 *72:90 *97:33 4.69495e-06
*RES
1 *606:Y *97:10 22.5417 
2 *97:10 *97:16 15.6403 
3 *97:16 *756:A1 13.3002 
4 *97:16 *97:33 13.4546 
5 *97:33 *747:A 18.8514 
6 *97:33 *607:C 23.653 
7 *97:10 *830:A1 46.6236 
*END

*D_NET *98 0.00361627
*CONN
*I *609:B I *D sky130_fd_sc_hd__nor3_1
*I *607:Y O *D sky130_fd_sc_hd__nor3_1
*CAP
1 *609:B 0
2 *607:Y 0.00106067
3 *98:12 0.00106067
4 *98:12 *524:B 0.000117421
5 *98:12 *618:A 0.000154344
6 *98:12 *621:B 0.000157717
7 *98:12 *622:A1 0
8 *98:12 *107:69 2.28107e-05
9 *98:12 *457:70 7.77309e-06
10 *98:12 *457:72 4.58688e-05
11 *98:12 *457:74 1.5756e-05
12 *98:12 *457:76 9.79134e-05
13 *622:B1 *98:12 1.94614e-05
14 *725:A1 *98:12 7.14714e-05
15 *40:569 *98:12 4.20184e-06
16 *50:20 *98:12 0.000626922
17 *50:26 *98:12 3.5534e-06
18 *51:154 *98:12 6.46487e-05
19 *51:173 *98:12 1.73748e-05
20 *86:10 *98:12 5.52038e-05
21 *95:89 *98:12 1.24886e-05
*RES
1 *607:Y *98:12 44.8976 
2 *98:12 *609:B 9.24915 
*END

*D_NET *99 0.000425216
*CONN
*I *609:C I *D sky130_fd_sc_hd__nor3_1
*I *608:Y O *D sky130_fd_sc_hd__a21oi_1
*CAP
1 *609:C 9.24531e-05
2 *608:Y 9.24531e-05
3 *609:C *611:B1 8.21325e-05
4 *609:C *430:29 7.67734e-06
5 *608:A1 *609:C 0.000110458
6 *50:20 *609:C 4.00421e-05
*RES
1 *608:Y *609:C 22.0429 
*END

*D_NET *100 0.000938701
*CONN
*I *611:B1 I *D sky130_fd_sc_hd__a211o_1
*I *609:Y O *D sky130_fd_sc_hd__nor3_1
*CAP
1 *611:B1 0.000408918
2 *609:Y 0.000408918
3 *611:B1 *430:29 9.80242e-07
4 *608:A1 *611:B1 7.92757e-06
5 *609:C *611:B1 8.21325e-05
6 *611:A1 *611:B1 2.98258e-05
*RES
1 *609:Y *611:B1 25.3947 
*END

*D_NET *101 0.0152336
*CONN
*I *863:A1 I *D sky130_fd_sc_hd__a21oi_1
*I *742:B I *D sky130_fd_sc_hd__nor2_1
*I *611:C1 I *D sky130_fd_sc_hd__a211o_1
*I *725:A2 I *D sky130_fd_sc_hd__o32a_1
*I *616:B1 I *D sky130_fd_sc_hd__a21oi_1
*I *610:Y O *D sky130_fd_sc_hd__nand2_1
*CAP
1 *863:A1 0.00010788
2 *742:B 5.29963e-05
3 *611:C1 0
4 *725:A2 0.000618401
5 *616:B1 0.000161558
6 *610:Y 0.000227507
7 *101:42 0.00123019
8 *101:34 0.00270449
9 *101:8 0.00242688
10 *616:B1 *616:A2 4.8634e-05
11 *616:B1 *626:A1 2.18186e-05
12 *616:B1 *626:A2 2.68139e-05
13 *725:A2 *615:B1 5.03013e-06
14 *725:A2 *713:A_N 5.34937e-05
15 *725:A2 *725:A3 5.04829e-06
16 *742:B *397:134 4.23858e-05
17 *863:A1 *886:A2 0.000162583
18 *101:8 *357:18 0.000161213
19 *101:8 *453:152 0.000302982
20 *101:34 *310:16 0
21 *101:34 *334:12 0
22 *101:34 *357:18 0.000299
23 *101:34 *393:47 0.000109421
24 *101:34 *397:134 9.29295e-05
25 *101:34 *407:10 3.19657e-05
26 *101:34 *422:158 3.61334e-05
27 *101:34 *429:10 4.19401e-06
28 *101:34 *430:47 3.06664e-05
29 *101:34 *453:152 0.000136393
30 *101:34 *455:443 0
31 *101:42 *407:10 0.000705624
32 *101:42 *407:23 0.000121062
33 *539:A1 *101:34 0.000510396
34 *539:B1 *101:34 4.00679e-05
35 *558:A1 *725:A2 0.000133641
36 *615:A2 *616:B1 0.00018473
37 *615:A3 *101:42 3.63738e-05
38 *616:A1 *616:B1 6.27782e-05
39 *619:A1 *101:34 3.73224e-05
40 *619:A1 *101:42 0.000752061
41 *725:A1 *725:A2 0.0005177
42 *853:A *101:34 4.63742e-05
43 *915:D *101:8 1.07248e-05
44 *26:146 *101:34 0.0009963
45 *27:23 *101:34 0
46 *39:30 *101:34 6.8723e-06
47 *40:12 *101:34 0.000294356
48 *40:569 *101:34 0.000400432
49 *44:70 *101:34 0.000540797
50 *44:83 *101:34 0.000305744
51 *57:178 *101:34 1.71028e-05
52 *59:28 *101:42 0.000109858
53 *59:277 *101:34 2.33827e-05
54 *64:59 *101:42 1.5714e-05
55 *89:78 *616:B1 0.000107496
56 *89:78 *725:A2 0.000156076
*RES
1 *610:Y *101:8 19.3184 
2 *101:8 *101:34 48.9241 
3 *101:34 *101:42 22.6001 
4 *101:42 *616:B1 15.181 
5 *101:42 *725:A2 23.6688 
6 *101:34 *611:C1 13.7491 
7 *101:8 *742:B 15.0271 
8 *610:Y *863:A1 20.3309 
*END

*D_NET *102 0.000999379
*CONN
*I *612:A3 I *D sky130_fd_sc_hd__a31oi_1
*I *611:X O *D sky130_fd_sc_hd__a211o_1
*CAP
1 *612:A3 0.00018862
2 *611:X 0.00018862
3 *612:A3 *430:29 4.8463e-06
4 *56:23 *612:A3 0.000315842
5 *59:20 *612:A3 3.26195e-05
6 *88:12 *612:A3 0.000268831
*RES
1 *611:X *612:A3 34.3456 
*END

*D_NET *103 0.00692975
*CONN
*I *614:A2 I *D sky130_fd_sc_hd__o21ai_0
*I *748:A I *D sky130_fd_sc_hd__or4b_1
*I *613:Y O *D sky130_fd_sc_hd__nor3b_1
*CAP
1 *614:A2 0.0018269
2 *748:A 3.9929e-05
3 *613:Y 0.000176464
4 *103:10 0.00204329
5 *614:A2 *574:A1 7.86825e-06
6 *614:A2 *692:A2_N 6.38499e-05
7 *614:A2 *138:20 0
8 *614:A2 *422:38 9.02049e-05
9 *614:A2 *454:77 5.69128e-05
10 *614:A2 *457:121 1.46079e-05
11 *614:A2 *457:125 4.94168e-05
12 *748:A *748:C 6.50586e-05
13 *748:A *457:154 0.000167076
14 *103:10 *422:38 2.25013e-05
15 *103:10 *457:125 9.35753e-06
16 *516:A *103:10 5.56461e-05
17 *582:B *614:A2 1.4227e-05
18 *583:A2 *614:A2 3.44886e-05
19 *594:C2 *614:A2 1.79239e-05
20 *596:B1 *614:A2 0.000121419
21 *652:B1 *103:10 0
22 *48:67 *614:A2 5.87469e-05
23 *51:173 *614:A2 3.58157e-05
24 *59:32 *614:A2 6.58698e-05
25 *59:34 *614:A2 0
26 *72:48 *614:A2 0.00120318
27 *86:10 *614:A2 0.000688999
*RES
1 *613:Y *103:10 17.2744 
2 *103:10 *748:A 15.5817 
3 *103:10 *614:A2 45.6575 
*END

*D_NET *104 0.000652962
*CONN
*I *615:B1 I *D sky130_fd_sc_hd__o311ai_0
*I *614:Y O *D sky130_fd_sc_hd__o21ai_0
*CAP
1 *615:B1 0.000229846
2 *614:Y 0.000229846
3 *615:B1 *616:A2 6.08467e-05
4 *615:B1 *713:A_N 0.000107496
5 *725:A2 *615:B1 5.03013e-06
6 *89:78 *615:B1 1.9898e-05
*RES
1 *614:Y *615:B1 21.9947 
*END

*D_NET *105 0.000501334
*CONN
*I *616:A2 I *D sky130_fd_sc_hd__a21oi_1
*I *615:Y O *D sky130_fd_sc_hd__o311ai_0
*CAP
1 *616:A2 0.000163408
2 *615:Y 0.000163408
3 *616:A2 *626:A2 1.02267e-05
4 *615:B1 *616:A2 6.08467e-05
5 *616:B1 *616:A2 4.8634e-05
6 *89:78 *616:A2 5.481e-05
*RES
1 *615:Y *616:A2 22.5734 
*END

*D_NET *106 0.000380059
*CONN
*I *626:A1 I *D sky130_fd_sc_hd__a21oi_1
*I *616:Y O *D sky130_fd_sc_hd__a21oi_1
*CAP
1 *626:A1 0.000101588
2 *616:Y 0.000101588
3 *626:A1 *626:A2 1.67187e-05
4 *615:A2 *626:A1 0.000110458
5 *616:B1 *626:A1 2.18186e-05
6 *61:24 *626:A1 2.78895e-05
*RES
1 *616:Y *626:A1 22.0429 
*END

*D_NET *107 0.0122477
*CONN
*I *881:A2 I *D sky130_fd_sc_hd__o21ai_0
*I *622:A2 I *D sky130_fd_sc_hd__a21oi_1
*I *618:B I *D sky130_fd_sc_hd__nand2_1
*I *709:A3 I *D sky130_fd_sc_hd__a31oi_1
*I *746:B2 I *D sky130_fd_sc_hd__o221ai_1
*I *798:A1 I *D sky130_fd_sc_hd__o21ai_0
*I *617:X O *D sky130_fd_sc_hd__and2_0
*CAP
1 *881:A2 0.000440098
2 *622:A2 0
3 *618:B 0.000115552
4 *709:A3 0
5 *746:B2 0.000180973
6 *798:A1 6.00011e-05
7 *617:X 4.12775e-05
8 *107:69 0.00140873
9 *107:50 0.00173487
10 *107:33 0.000873646
11 *107:18 0.00125011
12 *107:6 0.0014205
13 *618:B *552:A 8.57395e-05
14 *618:B *618:A 1.66923e-05
15 *618:B *619:A2 2.61017e-05
16 *618:B *622:A1 6.36477e-05
17 *618:B *623:B1 0.000153125
18 *746:B2 *746:B1 3.41459e-05
19 *798:A1 *798:A2 2.16355e-05
20 *798:A1 *803:A2 5.04829e-06
21 *881:A2 *681:C 2.82898e-05
22 *881:A2 *696:B 1.05272e-06
23 *881:A2 *700:A2 3.3955e-05
24 *881:A2 *881:B1 6.36477e-05
25 *881:A2 *267:8 6.36477e-05
26 *881:A2 *454:212 0
27 *107:18 *698:A1 1.2977e-05
28 *107:18 *700:B1 4.5539e-05
29 *107:18 *700:C1 0.000231305
30 *107:18 *758:A2 5.31295e-05
31 *107:18 *780:A 5.21584e-05
32 *107:18 *798:A2 8.15406e-05
33 *107:18 *798:B1 7.09666e-06
34 *107:18 *838:A2 4.6189e-06
35 *107:18 *422:63 1.32841e-05
36 *107:33 *798:B1 0.000104337
37 *107:50 *714:A2 0.000132423
38 *107:50 *430:57 5.24461e-05
39 *107:69 *713:A_N 0.000877328
40 *107:69 *713:B 5.22859e-06
41 *107:69 *714:A1 0.000114584
42 *107:69 *724:C1 1.65351e-05
43 *107:69 *725:B1 0.000138938
44 *557:A *107:18 1.6352e-05
45 *558:A1 *107:69 0.000101725
46 *583:A1 *746:B2 6.48184e-05
47 *583:A1 *107:33 1.58551e-05
48 *622:B1 *618:B 3.26125e-05
49 *622:B1 *107:69 4.69495e-06
50 *685:C1 *881:A2 0.000196726
51 *685:C1 *107:6 6.46815e-05
52 *709:A2 *107:50 4.34267e-05
53 *709:A2 *107:69 1.03594e-05
54 *712:A1 *107:33 5.04829e-06
55 *712:A1 *107:50 8.54958e-05
56 *746:A2 *746:B2 4.23858e-05
57 *823:A1 *618:B 3.00036e-05
58 *881:A1 *881:A2 1.7773e-05
59 *37:330 *881:A2 6.85115e-05
60 *37:330 *107:18 0.000154145
61 *38:174 *798:A1 2.41274e-06
62 *38:180 *107:18 1.72594e-05
63 *38:182 *107:18 0.000109506
64 *41:30 *107:18 7.58067e-06
65 *41:30 *107:33 7.0498e-05
66 *41:30 *107:69 9.03762e-06
67 *49:23 *107:18 0
68 *49:95 *107:50 0
69 *62:94 *107:18 0.000243859
70 *62:115 *107:18 0.000216098
71 *62:115 *107:33 0.000284546
72 *62:115 *107:50 0.000174205
73 *83:59 *107:18 6.93171e-05
74 *83:91 *107:18 0
75 *98:12 *107:69 2.28107e-05
*RES
1 *617:X *107:6 9.97254 
2 *107:6 *107:18 35.891 
3 *107:18 *798:A1 15.0271 
4 *107:18 *107:33 11.7625 
5 *107:33 *746:B2 13.8789 
6 *107:33 *107:50 16.3713 
7 *107:50 *709:A3 13.7491 
8 *107:50 *107:69 35.7741 
9 *107:69 *618:B 15.4462 
10 *107:69 *622:A2 9.24915 
11 *107:6 *881:A2 27.2077 
*END

*D_NET *108 0.000345521
*CONN
*I *619:A2 I *D sky130_fd_sc_hd__a21o_1
*I *618:Y O *D sky130_fd_sc_hd__nand2_1
*CAP
1 *619:A2 7.26948e-05
2 *618:Y 7.26948e-05
3 *619:A2 *623:B1 1.98846e-05
4 *618:B *619:A2 2.61017e-05
5 *823:A1 *619:A2 0.000154145
*RES
1 *618:Y *619:A2 20.9096 
*END

*D_NET *109 0.00023949
*CONN
*I *624:B I *D sky130_fd_sc_hd__nand3_1
*I *619:X O *D sky130_fd_sc_hd__a21o_1
*CAP
1 *624:B 7.7339e-05
2 *619:X 7.7339e-05
3 *624:B *623:B1 2.20337e-05
4 *624:B *624:A 6.27782e-05
*RES
1 *619:X *624:B 20.3309 
*END

*D_NET *110 0.00266334
*CONN
*I *623:A3 I *D sky130_fd_sc_hd__a31oi_1
*I *702:A1 I *D sky130_fd_sc_hd__o21ai_1
*I *634:C1 I *D sky130_fd_sc_hd__a211oi_1
*I *620:Y O *D sky130_fd_sc_hd__nor2b_1
*CAP
1 *623:A3 0.00033221
2 *702:A1 0
3 *634:C1 8.9397e-05
4 *620:Y 0.00010702
5 *110:12 0.000224919
6 *110:10 0.000574751
7 *623:A3 *660:A2 7.60183e-05
8 *623:A3 *417:51 7.03047e-05
9 *623:A3 *454:330 5.36658e-05
10 *634:C1 *634:A1 6.08467e-05
11 *634:C1 *702:A2 0.000157686
12 *110:12 *702:A2 1.07248e-05
13 *110:12 *705:A2 3.34802e-05
14 *110:12 *417:36 1.2693e-05
15 *110:12 *417:51 0
16 *575:A1 *110:12 0.000135186
17 *615:A2 *623:A3 0.000188503
18 *620:A *110:10 5.04829e-06
19 *623:A1 *623:A3 2.16355e-05
20 *623:A2 *623:A3 5.04829e-06
21 *30:228 *634:C1 6.27782e-05
22 *32:151 *634:C1 0.000157686
23 *32:151 *110:12 2.24484e-05
24 *56:62 *110:12 1.5254e-05
25 *61:24 *623:A3 0.00011056
26 *61:24 *110:10 6.56531e-05
27 *61:24 *110:12 2.95757e-05
28 *89:16 *623:A3 4.02517e-05
*RES
1 *620:Y *110:10 15.6059 
2 *110:10 *110:12 4.73876 
3 *110:12 *634:C1 17.5503 
4 *110:12 *702:A1 13.7491 
5 *110:10 *623:A3 24.0966 
*END

*D_NET *111 0.0015348
*CONN
*I *704:B1 I *D sky130_fd_sc_hd__o22a_1
*I *622:A1 I *D sky130_fd_sc_hd__a21oi_1
*I *621:X O *D sky130_fd_sc_hd__or2_1
*CAP
1 *704:B1 0.000141506
2 *622:A1 0.000259292
3 *621:X 0.000400799
4 *622:A1 *518:A2 0.000112703
5 *622:A1 *552:A 5.8911e-05
6 *622:A1 *558:A2 2.77564e-05
7 *704:B1 *704:B2 2.14842e-06
8 *618:B *622:A1 6.36477e-05
9 *823:A1 *622:A1 0.000205527
10 *40:26 *704:B1 6.64392e-05
11 *50:20 *622:A1 5.90398e-06
12 *50:20 *704:B1 4.35419e-05
13 *51:154 *704:B1 0
14 *95:89 *622:A1 1.5714e-05
15 *95:124 *622:A1 0.000130915
16 *98:12 *622:A1 0
*RES
1 *621:X *622:A1 34.2412 
2 *621:X *704:B1 30.4689 
*END

*D_NET *112 0.00139796
*CONN
*I *623:B1 I *D sky130_fd_sc_hd__a31oi_1
*I *622:Y O *D sky130_fd_sc_hd__a21oi_1
*CAP
1 *623:B1 0.000365544
2 *622:Y 0.000365544
3 *623:B1 *552:A 0.000107496
4 *623:B1 *624:A 2.58757e-05
5 *623:B1 *624:C 1.43832e-05
6 *618:B *623:B1 0.000153125
7 *619:A2 *623:B1 1.98846e-05
8 *619:B1 *623:B1 3.82228e-05
9 *623:A1 *623:B1 1.47978e-05
10 *624:B *623:B1 2.20337e-05
11 *57:90 *623:B1 0.000271058
*RES
1 *622:Y *623:B1 28.5294 
*END

*D_NET *113 0.000181275
*CONN
*I *624:C I *D sky130_fd_sc_hd__nand3_1
*I *623:Y O *D sky130_fd_sc_hd__a31oi_1
*CAP
1 *624:C 7.93372e-05
2 *623:Y 7.93372e-05
3 *623:B1 *624:C 1.43832e-05
4 *57:90 *624:C 8.21761e-06
*RES
1 *623:Y *624:C 20.355 
*END

*D_NET *114 0.00048805
*CONN
*I *626:A2 I *D sky130_fd_sc_hd__a21oi_1
*I *624:Y O *D sky130_fd_sc_hd__nand3_1
*CAP
1 *626:A2 0.000153969
2 *624:Y 0.000153969
3 *626:A2 *417:51 3.17869e-05
4 *616:A1 *626:A2 6.27782e-05
5 *616:A2 *626:A2 1.02267e-05
6 *616:B1 *626:A2 2.68139e-05
7 *626:A1 *626:A2 1.67187e-05
8 *88:12 *626:A2 3.17869e-05
*RES
1 *624:Y *626:A2 31.9051 
*END

*D_NET *115 0.000880147
*CONN
*I *626:B1 I *D sky130_fd_sc_hd__a21oi_1
*I *625:Y O *D sky130_fd_sc_hd__nor2b_1
*CAP
1 *626:B1 0.000180887
2 *625:Y 0.000180887
3 *626:B1 *446:18 6.08467e-05
4 *626:B1 *454:330 0.000205892
5 *623:A1 *626:B1 4.94979e-05
6 *56:62 *626:B1 9.43449e-05
7 *61:24 *626:B1 0.000107792
*RES
1 *625:Y *626:B1 33.4107 
*END

*D_NET *116 0.000210488
*CONN
*I *660:A2 I *D sky130_fd_sc_hd__o22ai_1
*I *626:Y O *D sky130_fd_sc_hd__a21oi_1
*CAP
1 *660:A2 3.08974e-05
2 *626:Y 3.08974e-05
3 *623:A3 *660:A2 7.60183e-05
4 *61:24 *660:A2 7.26748e-05
*RES
1 *626:Y *660:A2 28.915 
*END

*D_NET *117 0.00228513
*CONN
*P exp_out[3] O
*I *627:X O *D sky130_fd_sc_hd__clkdlybuf4s50_1
*CAP
1 exp_out[3] 0.000492812
2 *627:X 0.000492812
3 exp_out[3] *502:B 0.000100205
4 exp_out[3] *532:A2 0.000113082
5 exp_out[3] *533:B 0.000130441
6 exp_out[3] *591:A 0
7 exp_out[3] *599:A 0.000163344
8 exp_out[3] *627:A 6.27718e-05
9 exp_out[6] exp_out[3] 0
10 exp_out[8] exp_out[3] 0
11 *563:A2 exp_out[3] 3.20407e-05
12 *32:64 exp_out[3] 0.000697624
*RES
1 *627:X exp_out[3] 31.2454 
*END

*D_NET *118 0.000331334
*CONN
*P exp_out[2] O
*I *628:X O *D sky130_fd_sc_hd__clkdlybuf4s50_1
*CAP
1 exp_out[2] 0.000165667
2 *628:X 0.000165667
*RES
1 *628:X exp_out[2] 16.7004 
*END

*D_NET *119 0.000793027
*CONN
*P exp_out[1] O
*I *629:X O *D sky130_fd_sc_hd__clkdlybuf4s50_1
*CAP
1 exp_out[1] 0.000239765
2 *629:X 0.000239765
3 exp_out[1] *913:A 0.000313496
4 *32:10 exp_out[1] 0
*RES
1 *629:X exp_out[1] 19.1551 
*END

*D_NET *120 0.00184251
*CONN
*I *635:A1 I *D sky130_fd_sc_hd__a21oi_1
*I *630:Y O *D sky130_fd_sc_hd__o21ai_0
*CAP
1 *635:A1 0.000581048
2 *630:Y 0.000581048
3 *635:A1 *590:B_N 3.03812e-05
4 *635:A1 *702:A2 0.000161234
5 *635:A1 *457:228 4.05654e-05
6 *20:70 *635:A1 0
7 *38:76 *635:A1 0.000200794
8 *38:80 *635:A1 0.000247443
*RES
1 *630:Y *635:A1 37.2635 
*END

*D_NET *121 0.000319734
*CONN
*I *635:A2 I *D sky130_fd_sc_hd__a21oi_1
*I *631:Y O *D sky130_fd_sc_hd__a21oi_1
*CAP
1 *635:A2 0.000115758
2 *631:Y 0.000115758
3 *635:A2 *645:A 1.6581e-05
4 *631:B1 *635:A2 6.38891e-05
5 *20:70 *635:A2 7.74853e-06
*RES
1 *631:Y *635:A2 20.8011 
*END

*D_NET *122 0.00652059
*CONN
*I *837:B1 I *D sky130_fd_sc_hd__o21ai_0
*I *634:A1 I *D sky130_fd_sc_hd__a211oi_1
*I *632:Y O *D sky130_fd_sc_hd__nand2_1
*CAP
1 *837:B1 0.000212149
2 *634:A1 0.00146997
3 *632:Y 0
4 *122:4 0.00168212
5 *634:A1 *620:B_N 2.44829e-05
6 *634:A1 *457:82 1.57696e-05
7 *634:A1 *457:84 1.82679e-05
8 *634:A1 *457:105 4.27003e-05
9 *583:A1 *634:A1 0.00159422
10 *583:A1 *837:B1 0.000252649
11 *596:A1 *634:A1 6.08467e-05
12 *597:A2 *634:A1 0.000164815
13 *597:B1 *634:A1 2.21765e-05
14 *616:A1 *634:A1 0.000177787
15 *633:A *634:A1 0.000343543
16 *634:C1 *634:A1 6.08467e-05
17 *849:A2 *837:B1 0.000122098
18 *30:228 *634:A1 0.000134054
19 *49:95 *837:B1 0.000122098
*RES
1 *632:Y *122:4 9.24915 
2 *122:4 *634:A1 49.6117 
3 *122:4 *837:B1 23.4382 
*END

*D_NET *123 0.00593627
*CONN
*I *634:A2 I *D sky130_fd_sc_hd__a211oi_1
*I *797:A2 I *D sky130_fd_sc_hd__o21ai_0
*I *633:X O *D sky130_fd_sc_hd__and2_1
*CAP
1 *634:A2 0
2 *797:A2 0.00200343
3 *633:X 1.20439e-05
4 *123:6 0.00201548
5 *797:A2 *574:A1 0
6 *797:A2 *660:B1 5.39635e-06
7 *797:A2 *797:A1 9.37846e-05
8 *797:A2 *816:A3 5.41351e-05
9 *797:A2 *233:43 6.13715e-06
10 *797:A2 *237:34 0.000104754
11 *594:C2 *797:A2 0.000790852
12 *633:A *123:6 2.57847e-05
13 *669:A_N *797:A2 7.16541e-06
14 *797:B1 *797:A2 3.63593e-05
15 *30:220 *797:A2 0
16 *30:228 *123:6 6.64392e-05
17 *37:278 *797:A2 8.65132e-05
18 *48:67 *797:A2 5.35749e-05
19 *48:157 *797:A2 0
20 *51:41 *797:A2 0.000534983
21 *51:70 *797:A2 3.94395e-05
22 *57:42 *797:A2 0
*RES
1 *633:X *123:6 9.97254 
2 *123:6 *797:A2 30.7985 
3 *123:6 *634:A2 9.24915 
*END

*D_NET *124 0.000767257
*CONN
*I *635:B1 I *D sky130_fd_sc_hd__a21oi_1
*I *634:Y O *D sky130_fd_sc_hd__a211oi_1
*CAP
1 *635:B1 0.000193133
2 *634:Y 0.000193133
3 *635:B1 *660:B1 9.04668e-05
4 *20:70 *635:B1 9.65752e-06
5 *30:228 *635:B1 0.000202726
6 *32:151 *635:B1 6.27782e-05
7 *48:67 *635:B1 1.53621e-05
*RES
1 *634:Y *635:B1 32.9632 
*END

*D_NET *125 0.000379987
*CONN
*I *645:A I *D sky130_fd_sc_hd__nor2_1
*I *635:Y O *D sky130_fd_sc_hd__a21oi_1
*CAP
1 *645:A 0.000117624
2 *635:Y 0.000117624
3 *645:A *660:B1 1.17054e-05
4 *635:A2 *645:A 1.6581e-05
5 *20:70 *645:A 0.000116452
*RES
1 *635:Y *645:A 22.2479 
*END

*D_NET *126 0.0181589
*CONN
*I *825:A1 I *D sky130_fd_sc_hd__o22ai_1
*I *872:B1 I *D sky130_fd_sc_hd__o221ai_1
*I *820:A1 I *D sky130_fd_sc_hd__o21ai_0
*I *813:A2 I *D sky130_fd_sc_hd__a311oi_1
*I *877:A2 I *D sky130_fd_sc_hd__a31oi_1
*I *881:B1 I *D sky130_fd_sc_hd__o21ai_0
*I *638:A2 I *D sky130_fd_sc_hd__o21ai_0
*I *636:X O *D sky130_fd_sc_hd__or2_0
*CAP
1 *825:A1 0.000593406
2 *872:B1 0
3 *820:A1 0.00027604
4 *813:A2 9.01502e-05
5 *877:A2 0
6 *881:B1 0.000557288
7 *638:A2 0
8 *636:X 0
9 *126:103 0.00107082
10 *126:86 0.00100109
11 *126:69 0.00149265
12 *126:26 0.00196507
13 *126:14 0.00182012
14 *126:4 0.00156721
15 *813:A2 *813:A1 3.53086e-05
16 *820:A1 *796:A 2.01407e-05
17 *820:A1 *796:B 7.98171e-06
18 *820:A1 *796:C 0.000107496
19 *825:A1 *805:A1 2.16355e-05
20 *825:A1 *825:B1 2.58757e-05
21 *825:A1 *827:A2 1.03403e-05
22 *825:A1 *393:55 0.000394771
23 *825:A1 *429:98 0.000121004
24 *825:A1 *455:298 0.000113637
25 *881:B1 *639:A 4.00463e-05
26 *881:B1 *681:C 9.74941e-05
27 *881:B1 *882:B1 6.98337e-06
28 *881:B1 *262:10 0
29 *881:B1 *265:12 0.000246206
30 *881:B1 *454:126 4.50199e-05
31 *881:B1 *454:191 0.000124009
32 *126:14 *790:A1 1.41291e-05
33 *126:14 *875:A 6.36477e-05
34 *126:14 *877:A1 6.50727e-05
35 *126:14 *877:B1 0.000169762
36 *126:14 *880:A2 3.89076e-05
37 *126:14 *263:6 0.000159322
38 *126:14 *263:20 0.000725405
39 *126:69 *723:A1 0.000205517
40 *126:69 *723:B2 1.04125e-05
41 *126:69 *813:C1 2.58616e-05
42 *126:69 *821:A1 2.8182e-06
43 *126:69 *210:14 4.66492e-05
44 *126:69 *210:26 6.27718e-05
45 *126:86 *715:B 5.49916e-05
46 *126:86 *794:D 9.61614e-05
47 *126:86 *813:A1 4.76161e-06
48 *126:86 *813:B1 7.50722e-05
49 *126:86 *813:C1 0.000139936
50 *126:86 *422:90 7.86987e-05
51 *126:103 *794:D 8.21849e-06
52 *126:103 *818:C 2.29386e-05
53 *126:103 *821:A1 3.64497e-06
54 *126:103 *210:41 0.000170406
55 *126:103 *429:98 0.00037897
56 *126:103 *455:298 0.000255336
57 *638:B1 *881:B1 3.5534e-06
58 *638:B1 *126:26 7.86825e-06
59 *640:B1 *881:B1 0.000166263
60 *641:A1 *126:26 0
61 *647:B1 *126:26 0
62 *680:A *881:B1 1.32488e-05
63 *681:A *881:B1 2.91559e-06
64 *788:A *126:14 7.67191e-05
65 *790:B1 *126:14 0.000228593
66 *794:B *126:103 7.59432e-05
67 *830:A1 *126:69 0
68 *881:A2 *881:B1 6.36477e-05
69 *30:83 *881:B1 1.583e-05
70 *30:83 *126:26 2.1203e-06
71 *37:345 *881:B1 0.000161262
72 *44:229 *126:69 0.000303898
73 *44:231 *126:69 0.000226281
74 *44:237 *126:14 0.000228593
75 *44:237 *126:69 0.000202136
76 *44:239 *126:14 0.000328363
77 *51:106 *825:A1 0.000298399
78 *51:106 *126:86 0
79 *51:106 *126:103 0.000338077
80 *56:422 *126:69 0
81 *56:550 *825:A1 0.000152808
82 *59:323 *126:103 0
83 *68:30 *126:86 3.39319e-05
84 *68:30 *126:103 0.000202987
85 *72:28 *126:26 1.07248e-05
86 *72:34 *126:26 0.000191518
87 *83:59 *881:B1 9.20447e-05
88 *97:10 *126:69 0
*RES
1 *636:X *126:4 9.24915 
2 *126:4 *126:14 19.2664 
3 *126:14 *126:26 35.2166 
4 *126:26 *638:A2 13.7491 
5 *126:26 *881:B1 29.5904 
6 *126:14 *877:A2 9.24915 
7 *126:4 *126:69 34.4646 
8 *126:69 *813:A2 11.0817 
9 *126:69 *126:86 12.5288 
10 *126:86 *820:A1 18.2342 
11 *126:86 *126:103 18.9306 
12 *126:103 *872:B1 13.7491 
13 *126:103 *825:A1 38.5255 
*END

*D_NET *127 0.000610507
*CONN
*P exp_out[0] O
*I *637:X O *D sky130_fd_sc_hd__clkdlybuf4s50_1
*CAP
1 exp_out[0] 0.000293186
2 *637:X 0.000293186
3 exp_out[0] *572:A 0
4 exp_out[0] *628:A 0
5 exp_out[9] exp_out[0] 0
6 *904:B1 exp_out[0] 2.41338e-05
*RES
1 *637:X exp_out[0] 20.0224 
*END

*D_NET *128 0.00094958
*CONN
*I *641:A2 I *D sky130_fd_sc_hd__a21oi_1
*I *638:Y O *D sky130_fd_sc_hd__o21ai_0
*CAP
1 *641:A2 8.05578e-05
2 *638:Y 8.05578e-05
3 *641:A2 *454:103 0.000377259
4 *641:A2 *454:118 9.97706e-05
5 *30:79 *641:A2 0.00012316
6 *30:107 *641:A2 1.92336e-05
7 *30:116 *641:A2 0.000169041
*RES
1 *638:Y *641:A2 24.2372 
*END

*D_NET *129 0.00209358
*CONN
*I *777:B1 I *D sky130_fd_sc_hd__o221ai_1
*I *640:B2 I *D sky130_fd_sc_hd__o22ai_1
*I *747:B I *D sky130_fd_sc_hd__nor2_1
*I *639:Y O *D sky130_fd_sc_hd__nand2_1
*CAP
1 *777:B1 8.4223e-05
2 *640:B2 0
3 *747:B 0.000236633
4 *639:Y 0
5 *129:16 0.000395157
6 *129:4 0.000242746
7 *747:B *640:A2 8.00364e-05
8 *747:B *641:B1 0.000152144
9 *747:B *748:C 1.19721e-05
10 *777:B1 *640:A2 0.000244775
11 *777:B1 *776:B2 1.47978e-05
12 *777:B1 *777:C1 1.22436e-05
13 *777:B1 *454:191 2.57986e-05
14 *129:16 *640:A2 0.000159945
15 *129:16 *777:C1 0
16 *640:B1 *747:B 3.3901e-06
17 *640:B1 *777:B1 1.71698e-05
18 *640:B1 *129:16 0.000335664
19 *688:A *129:16 7.68813e-05
*RES
1 *639:Y *129:4 9.24915 
2 *129:4 *129:16 7.64388 
3 *129:16 *747:B 14.5782 
4 *129:16 *640:B2 9.24915 
5 *129:4 *777:B1 12.7697 
*END

*D_NET *130 0.000906346
*CONN
*I *641:B1 I *D sky130_fd_sc_hd__a21oi_1
*I *640:Y O *D sky130_fd_sc_hd__o22ai_1
*CAP
1 *641:B1 0.000200592
2 *640:Y 0.000200592
3 *641:B1 *613:C_N 0
4 *641:B1 *748:C 5.04829e-06
5 *641:B1 *131:20 3.68552e-05
6 *641:B1 *454:88 0
7 *641:B1 *454:103 0.000217951
8 *640:B1 *641:B1 6.78514e-06
9 *747:B *641:B1 0.000152144
10 *30:79 *641:B1 8.63789e-05
*RES
1 *640:Y *641:B1 33.8327 
*END

*D_NET *131 0.00720167
*CONN
*I *644:A2 I *D sky130_fd_sc_hd__o21ai_0
*I *641:Y O *D sky130_fd_sc_hd__a21oi_1
*CAP
1 *644:A2 0.000756416
2 *641:Y 0.000799755
3 *131:20 0.00155617
4 *644:A2 *643:A2 3.77432e-05
5 *644:A2 *644:B1 0.000137062
6 *644:A2 *657:A2 0.00025233
7 *644:A2 *659:A2 1.88563e-05
8 *644:A2 *454:49 6.64671e-06
9 *644:A2 *454:77 4.40913e-05
10 *131:20 *613:C_N 0
11 *131:20 *685:D1 0.00025527
12 *131:20 *694:B 6.27718e-05
13 *131:20 *419:28 1.23822e-05
14 *131:20 *454:88 0
15 *131:20 *455:94 0.000191271
16 *131:20 *455:113 0.00017561
17 *589:A *131:20 5.49916e-05
18 *604:A_N *131:20 0.000202726
19 *641:A1 *131:20 0
20 *641:B1 *131:20 3.68552e-05
21 *643:A1 *644:A2 1.37189e-05
22 *657:A1 *644:A2 0.000166708
23 *657:C1 *644:A2 0.000109427
24 *699:A *644:A2 0.000671597
25 *747:A *131:20 1.91391e-05
26 *884:B *131:20 0.000346503
27 *28:20 *644:A2 0.000556371
28 *30:54 *131:20 9.7112e-06
29 *30:56 *131:20 1.32841e-05
30 *30:79 *131:20 0.00011818
31 *30:83 *131:20 0
32 *37:22 *131:20 0.000396254
33 *40:284 *131:20 6.31229e-05
34 *40:647 *644:A2 1.66626e-05
35 *48:44 *644:A2 6.63295e-06
36 *56:164 *131:20 1.90225e-05
37 *56:177 *131:20 1.8676e-05
38 *56:181 *131:20 0
39 *95:27 *131:20 5.571e-05
*RES
1 *641:Y *131:20 49.5793 
2 *131:20 *644:A2 29.2237 
*END

*D_NET *132 0.000804234
*CONN
*I *643:A2 I *D sky130_fd_sc_hd__a21oi_1
*I *642:Y O *D sky130_fd_sc_hd__o22ai_1
*CAP
1 *643:A2 0.00011989
2 *642:Y 0.00011989
3 *643:A2 *455:22 7.2002e-05
4 *642:A1 *643:A2 7.2002e-05
5 *643:A1 *643:A2 6.64392e-05
6 *644:A2 *643:A2 3.77432e-05
7 *657:A1 *643:A2 7.42443e-05
8 *56:86 *643:A2 8.60778e-05
9 *56:99 *643:A2 4.81452e-05
10 *83:12 *643:A2 0.000107801
*RES
1 *642:Y *643:A2 32.4583 
*END

*D_NET *133 0.000495767
*CONN
*I *644:B1 I *D sky130_fd_sc_hd__o21ai_0
*I *643:Y O *D sky130_fd_sc_hd__a21oi_1
*CAP
1 *644:B1 0.000163719
2 *643:Y 0.000163719
3 *644:B1 *645:B 1.03594e-05
4 *643:B1 *644:B1 2.09072e-05
5 *644:A2 *644:B1 0.000137062
*RES
1 *643:Y *644:B1 30.9526 
*END

*D_NET *134 0.00184442
*CONN
*I *645:B I *D sky130_fd_sc_hd__nor2_1
*I *644:Y O *D sky130_fd_sc_hd__o21ai_0
*CAP
1 *645:B 0.000486079
2 *644:Y 0.000486079
3 *645:B *656:A 4.09515e-05
4 *645:B *868:A2 3.44886e-05
5 *645:B *146:20 0
6 *645:B *149:14 0
7 *644:B1 *645:B 1.03594e-05
8 *20:70 *645:B 1.6989e-05
9 *30:12 *645:B 0.000179286
10 *30:18 *645:B 0.000233854
11 *30:220 *645:B 0.000356328
12 *56:86 *645:B 0
*RES
1 *644:Y *645:B 43.0336 
*END

*D_NET *135 0.0022198
*CONN
*I *660:B1 I *D sky130_fd_sc_hd__o22ai_1
*I *645:Y O *D sky130_fd_sc_hd__nor2_1
*CAP
1 *660:B1 0.000656858
2 *645:Y 0.000656858
3 *660:B1 *620:B_N 6.59854e-05
4 *575:A1 *660:B1 0.000293556
5 *635:B1 *660:B1 9.04668e-05
6 *645:A *660:B1 1.17054e-05
7 *660:A1 *660:B1 6.36477e-05
8 *797:A2 *660:B1 5.39635e-06
9 *20:70 *660:B1 7.05776e-05
10 *30:220 *660:B1 0
11 *32:151 *660:B1 0
12 *48:67 *660:B1 6.96979e-05
13 *56:62 *660:B1 0.00016607
14 *56:76 *660:B1 6.89765e-05
15 *57:42 *660:B1 0
*RES
1 *645:Y *660:B1 44.2489 
*END

*D_NET *136 0.000806042
*CONN
*I *652:A2 I *D sky130_fd_sc_hd__o21ai_0
*I *647:A2 I *D sky130_fd_sc_hd__o21ai_0
*I *646:Y O *D sky130_fd_sc_hd__a21oi_1
*CAP
1 *652:A2 0
2 *647:A2 0.000154636
3 *646:Y 0.000175779
4 *136:8 0.000330415
5 *647:A2 *647:A1 7.58595e-05
6 *647:A2 *651:A 3.14978e-05
7 *647:A2 *659:A1 0
8 *136:8 *659:A1 0
9 *136:8 *138:20 7.08723e-06
10 *136:8 *138:103 3.20069e-06
11 *136:8 *139:12 1.07248e-05
12 *649:A1 *136:8 8.62321e-06
13 *652:B1 *647:A2 0
14 *652:B1 *136:8 0
15 *653:A1 *136:8 0
16 *56:101 *136:8 8.21849e-06
*RES
1 *646:Y *136:8 17.6574 
2 *136:8 *647:A2 17.9655 
3 *136:8 *652:A2 13.7491 
*END

*D_NET *137 0.000319134
*CONN
*I *651:A I *D sky130_fd_sc_hd__nand2_1
*I *647:Y O *D sky130_fd_sc_hd__o21ai_0
*CAP
1 *651:A 0.000140143
2 *647:Y 0.000140143
3 *647:A2 *651:A 3.14978e-05
4 *647:B1 *651:A 7.34948e-06
*RES
1 *647:Y *651:A 22.0188 
*END

*D_NET *138 0.0178219
*CONN
*I *654:A3 I *D sky130_fd_sc_hd__a31oi_1
*I *650:A2 I *D sky130_fd_sc_hd__a21oi_1
*I *799:B1 I *D sky130_fd_sc_hd__o21ai_0
*I *738:A2 I *D sky130_fd_sc_hd__o211ai_1
*I *845:A2 I *D sky130_fd_sc_hd__o21ai_0
*I *839:A2 I *D sky130_fd_sc_hd__o21ai_0
*I *648:X O *D sky130_fd_sc_hd__and2_1
*CAP
1 *654:A3 0
2 *650:A2 2.19663e-05
3 *799:B1 0.000593853
4 *738:A2 8.44823e-05
5 *845:A2 0.000465267
6 *839:A2 0
7 *648:X 0.00212078
8 *138:103 0.000136537
9 *138:47 0.000989343
10 *138:32 0.00147328
11 *138:20 0.00363375
12 *650:A2 *650:B1 6.50727e-05
13 *738:A2 *735:A1 0.000163428
14 *738:A2 *393:106 1.92172e-05
15 *738:A2 *397:91 8.88984e-06
16 *799:B1 *876:B 3.6241e-05
17 *799:B1 *286:16 2.02035e-05
18 *799:B1 *454:149 0.000196557
19 *845:A2 *736:B1 9.64718e-05
20 *845:A2 *737:A2 0.000111802
21 *845:A2 *737:B1 6.08467e-05
22 *138:20 *689:A2 0
23 *138:20 *876:B 5.39134e-05
24 *138:20 *454:77 0
25 *138:20 *454:149 0.000177461
26 *138:20 *457:127 0.000113968
27 *138:20 *457:136 6.9815e-05
28 *138:32 *744:B 1.33241e-05
29 *138:32 *858:A2 0.00128511
30 *138:32 *168:85 1.01116e-05
31 *138:32 *371:26 0.000948845
32 *138:47 *711:B 0.000163563
33 *138:47 *858:A2 9.55484e-05
34 *138:47 *168:85 6.16621e-05
35 *138:47 *393:106 0.000368867
36 *138:103 *650:B1 6.50586e-05
37 *138:103 *139:12 3.4693e-05
38 *138:103 *454:53 3.31733e-05
39 *138:103 *455:47 6.92705e-05
40 *592:B *138:103 6.50586e-05
41 *614:A2 *138:20 0
42 *649:A1 *138:20 7.09666e-06
43 *653:A1 *138:20 1.27831e-06
44 *712:A1 *138:32 4.73161e-06
45 *712:A1 *138:47 3.81416e-06
46 *735:B1 *138:47 0.000307037
47 *738:A1 *738:A2 3.25906e-05
48 *747:A *138:20 0.000348185
49 *789:B *799:B1 4.75721e-06
50 *845:A1 *845:A2 0.000114334
51 *875:B *138:20 8.39242e-05
52 *37:147 *138:47 1.5714e-05
53 *40:180 *845:A2 2.5292e-05
54 *40:186 *845:A2 6.70598e-05
55 *40:186 *138:47 1.55462e-05
56 *40:188 *138:47 9.12238e-05
57 *40:194 *138:32 1.91391e-05
58 *40:194 *138:47 0.000222057
59 *41:12 *138:20 0.00117296
60 *41:18 *138:32 5.25588e-05
61 *51:70 *138:47 5.64215e-05
62 *56:189 *138:20 7.60871e-05
63 *56:342 *845:A2 9.98296e-05
64 *57:237 *845:A2 1.65872e-05
65 *70:48 *138:20 6.88661e-06
66 *72:28 *799:B1 0.000266921
67 *72:34 *138:20 0.000155137
68 *72:48 *138:20 0.000428659
69 *83:12 *138:103 7.23866e-05
70 *97:33 *799:B1 7.24084e-05
71 *97:33 *138:20 4.35222e-05
72 *136:8 *138:20 7.08723e-06
73 *136:8 *138:103 3.20069e-06
*RES
1 *648:X *138:20 25.8741 
2 *138:20 *138:32 8.25914 
3 *138:32 *839:A2 13.7491 
4 *138:32 *138:47 19.682 
5 *138:47 *845:A2 28.786 
6 *138:47 *738:A2 12.2151 
7 *138:20 *799:B1 18.885 
8 *648:X *138:103 22.7737 
9 *138:103 *650:A2 9.97254 
10 *138:103 *654:A3 9.24915 
*END

*D_NET *139 0.00227192
*CONN
*I *748:D_N I *D sky130_fd_sc_hd__or4b_1
*I *650:B1 I *D sky130_fd_sc_hd__a21oi_1
*I *654:B1 I *D sky130_fd_sc_hd__a31oi_1
*I *649:Y O *D sky130_fd_sc_hd__a21oi_1
*CAP
1 *748:D_N 0.000154924
2 *650:B1 0.000190129
3 *654:B1 0
4 *649:Y 0
5 *139:12 0.000299271
6 *139:4 0.000264066
7 *650:B1 *586:A 4.88171e-05
8 *650:B1 *651:B 5.20546e-06
9 *748:D_N *455:58 0
10 *748:D_N *457:127 1.16357e-05
11 *748:D_N *457:154 1.41307e-05
12 *139:12 *454:53 1.44611e-05
13 *139:12 *455:47 6.92705e-05
14 *139:12 *455:58 0.000111708
15 *592:B *139:12 6.50727e-05
16 *650:A1 *650:B1 0.000164829
17 *650:A2 *650:B1 6.50727e-05
18 *40:623 *748:D_N 0.000200794
19 *40:623 *139:12 9.55447e-05
20 *40:636 *139:12 0.000148144
21 *48:8 *748:D_N 0.000230591
22 *56:101 *139:12 7.77309e-06
23 *136:8 *139:12 1.07248e-05
24 *138:103 *650:B1 6.50586e-05
25 *138:103 *139:12 3.4693e-05
*RES
1 *649:Y *139:4 9.24915 
2 *139:4 *139:12 13.9104 
3 *139:12 *654:B1 9.24915 
4 *139:12 *650:B1 14.4335 
5 *139:4 *748:D_N 14.2888 
*END

*D_NET *140 0.00127542
*CONN
*I *651:B I *D sky130_fd_sc_hd__nand2_1
*I *650:Y O *D sky130_fd_sc_hd__a21oi_1
*CAP
1 *651:B 0.000382373
2 *650:Y 0.000382373
3 *651:B *653:A2 0.000120872
4 *651:B *659:A1 0.000279003
5 *651:B *455:40 0.000105589
6 *650:B1 *651:B 5.20546e-06
*RES
1 *650:Y *651:B 37.5282 
*END

*D_NET *141 0.00028172
*CONN
*I *653:A2 I *D sky130_fd_sc_hd__o21ai_0
*I *651:Y O *D sky130_fd_sc_hd__nand2_1
*CAP
1 *653:A2 4.87949e-05
2 *651:Y 4.87949e-05
3 *653:A2 *647:A1 2.64881e-05
4 *653:A2 *659:A1 3.67708e-05
5 *651:B *653:A2 0.000120872
*RES
1 *651:Y *653:A2 29.7455 
*END

*D_NET *142 0.000396173
*CONN
*I *653:B1 I *D sky130_fd_sc_hd__o21ai_0
*I *652:Y O *D sky130_fd_sc_hd__o21ai_0
*CAP
1 *653:B1 0.000109679
2 *652:Y 0.000109679
3 *653:B1 *647:A1 6.50727e-05
4 *653:B1 *422:14 9.97706e-05
5 *653:A1 *653:B1 1.19721e-05
*RES
1 *652:Y *653:B1 21.4642 
*END

*D_NET *143 0.00168528
*CONN
*I *659:A1 I *D sky130_fd_sc_hd__o21ai_0
*I *653:Y O *D sky130_fd_sc_hd__o21ai_0
*CAP
1 *659:A1 0.000362076
2 *653:Y 0.000362076
3 *659:A1 *647:A1 1.79196e-05
4 *659:A1 *659:A2 3.06627e-05
5 *659:A1 *149:8 4.2372e-05
6 *659:A1 *455:40 0.000160657
7 *644:A1 *659:A1 4.87301e-05
8 *647:A2 *659:A1 0
9 *651:B *659:A1 0.000279003
10 *653:A2 *659:A1 3.67708e-05
11 *83:12 *659:A1 0.000345016
12 *136:8 *659:A1 0
*RES
1 *653:Y *659:A1 40.6476 
*END

*D_NET *144 0.00119088
*CONN
*I *657:A2 I *D sky130_fd_sc_hd__o211ai_1
*I *654:Y O *D sky130_fd_sc_hd__a31oi_1
*CAP
1 *657:A2 0.000244635
2 *654:Y 0.000244635
3 *657:A2 *659:A2 6.27718e-05
4 *657:A2 *454:49 0.000176095
5 *657:A2 *454:53 0.000101747
6 *644:A2 *657:A2 0.00025233
7 *40:647 *657:A2 0.000108671
*RES
1 *654:Y *657:A2 35.5941 
*END

*D_NET *145 0.00209857
*CONN
*I *702:A2 I *D sky130_fd_sc_hd__o21ai_1
*I *656:B I *D sky130_fd_sc_hd__nand2_1
*I *655:Y O *D sky130_fd_sc_hd__nor3b_1
*CAP
1 *702:A2 0.000349327
2 *656:B 8.8075e-05
3 *655:Y 0
4 *145:4 0.000437402
5 *702:A2 *590:B_N 6.27782e-05
6 *702:A2 *655:A 4.61271e-05
7 *702:A2 *417:23 0.000131476
8 *702:A2 *417:36 0.000340905
9 *702:A2 *457:228 0.000151044
10 *590:A *702:A2 7.67734e-06
11 *634:C1 *702:A2 0.000157686
12 *635:A1 *702:A2 0.000161234
13 *32:151 *702:A2 2.12561e-05
14 *48:67 *702:A2 2.16305e-05
15 *57:14 *656:B 6.94804e-05
16 *57:14 *702:A2 4.17467e-05
17 *110:12 *702:A2 1.07248e-05
*RES
1 *655:Y *145:4 9.24915 
2 *145:4 *656:B 11.6605 
3 *145:4 *702:A2 31.0521 
*END

*D_NET *146 0.00245295
*CONN
*I *657:B1 I *D sky130_fd_sc_hd__o211ai_1
*I *656:Y O *D sky130_fd_sc_hd__nand2_1
*CAP
1 *657:B1 0
2 *656:Y 0.000632695
3 *146:20 0.000632695
4 *146:20 *656:A 2.3339e-05
5 *146:20 *454:34 7.98171e-06
6 *146:20 *454:49 0.00015318
7 *146:20 *455:22 0.00010813
8 *593:A2 *146:20 0.000136838
9 *645:B *146:20 0
10 *867:A2 *146:20 0.000115269
11 *38:96 *146:20 0.000118485
12 *56:86 *146:20 0.00018596
13 *57:14 *146:20 6.53364e-05
14 *83:12 *146:20 0.000273044
*RES
1 *656:Y *146:20 43.8532 
2 *146:20 *657:B1 9.24915 
*END

*D_NET *147 0.000515699
*CONN
*I *659:A2 I *D sky130_fd_sc_hd__o21ai_0
*I *657:Y O *D sky130_fd_sc_hd__o211ai_1
*CAP
1 *659:A2 0.000182052
2 *657:Y 0.000182052
3 *644:A2 *659:A2 1.88563e-05
4 *657:A2 *659:A2 6.27718e-05
5 *659:A1 *659:A2 3.06627e-05
6 *83:12 *659:A2 3.93047e-05
*RES
1 *657:Y *659:A2 31.4388 
*END

*D_NET *148 0.00690983
*CONN
*I *694:A I *D sky130_fd_sc_hd__nand3_1
*I *659:B1 I *D sky130_fd_sc_hd__o21ai_0
*I *658:Y O *D sky130_fd_sc_hd__nor2_1
*CAP
1 *694:A 0.000172457
2 *659:B1 0.000650856
3 *658:Y 0.000425512
4 *148:12 0.00124883
5 *659:B1 *546:A 2.16355e-05
6 *659:B1 *674:B1 3.29488e-05
7 *659:B1 *422:38 0.000463595
8 *148:12 *662:A1_N 0.000280085
9 *148:12 *664:A2 1.94907e-05
10 *148:12 *675:A2 3.03782e-05
11 *148:12 *422:38 0.000171923
12 *571:B *659:B1 0.000107496
13 *573:A *694:A 0.00040456
14 *582:B *148:12 0
15 *596:B1 *148:12 5.75713e-05
16 *644:A1 *659:B1 2.59318e-05
17 *664:B2 *148:12 4.34267e-05
18 *686:B *694:A 0.000160378
19 *30:169 *659:B1 0.00040517
20 *38:23 *659:B1 0.000102875
21 *38:34 *659:B1 4.79612e-05
22 *38:60 *659:B1 2.57465e-06
23 *48:48 *659:B1 0.000150017
24 *48:48 *148:12 0.000462454
25 *48:67 *148:12 7.22263e-05
26 *62:35 *659:B1 0.000158002
27 *62:73 *659:B1 0.000390085
28 *83:53 *694:A 0.000801396
*RES
1 *658:Y *148:12 27.2815 
2 *148:12 *659:B1 34.3407 
3 *148:12 *694:A 23.3703 
*END

*D_NET *149 0.0060923
*CONN
*I *660:B2 I *D sky130_fd_sc_hd__o22ai_1
*I *659:Y O *D sky130_fd_sc_hd__o21ai_0
*CAP
1 *660:B2 0
2 *659:Y 0.000401281
3 *149:14 0.000886199
4 *149:8 0.00128748
5 *149:14 *868:A2 0.000125695
6 *149:14 *354:10 0.00139582
7 *149:14 *454:10 0.000663293
8 *149:14 *454:18 0.000195154
9 *149:14 *455:14 0
10 *644:A1 *149:8 7.64323e-05
11 *644:A1 *149:14 0.000122992
12 *645:B *149:14 0
13 *659:A1 *149:8 4.2372e-05
14 *660:A1 *149:14 0.000402574
15 *866:A *149:14 1.904e-05
16 *919:D *149:14 0.000203324
17 *32:131 *149:14 6.13051e-05
18 *57:42 *149:14 0.000209341
*RES
1 *659:Y *149:8 20.0186 
2 *149:8 *149:14 43.8847 
3 *149:14 *660:B2 9.24915 
*END

*D_NET *150 0.00144662
*CONN
*I *664:A2 I *D sky130_fd_sc_hd__o22ai_1
*I *661:Y O *D sky130_fd_sc_hd__xnor2_1
*CAP
1 *664:A2 0.000435287
2 *661:Y 0.000435287
3 *664:A2 *675:A2 1.03594e-05
4 *666:A *664:A2 3.44412e-06
5 *726:B2 *664:A2 0.000380424
6 *32:151 *664:A2 0.00016233
7 *148:12 *664:A2 1.94907e-05
*RES
1 *661:Y *664:A2 35.1845 
*END

*D_NET *151 0.000345667
*CONN
*I *664:B1 I *D sky130_fd_sc_hd__o22ai_1
*I *662:Y O *D sky130_fd_sc_hd__a2bb2oi_1
*CAP
1 *664:B1 9.01753e-05
2 *662:Y 9.01753e-05
3 *664:B1 *662:A1_N 2.41568e-05
4 *662:B1 *664:B1 7.23857e-05
5 *662:B2 *664:B1 6.08467e-05
6 *20:70 *664:B1 7.92757e-06
*RES
1 *662:Y *664:B1 20.9096 
*END

*D_NET *152 0.000699396
*CONN
*P x_in[7] I
*I *663:A I *D sky130_fd_sc_hd__clkdlybuf4s50_1
*CAP
1 x_in[7] 0.000274275
2 *663:A 0.000274275
3 *663:A *716:A 0.000150845
*RES
1 x_in[7] *663:A 27.9799 
*END

*D_NET *153 0.00060069
*CONN
*I *675:A2 I *D sky130_fd_sc_hd__a2111oi_1
*I *664:Y O *D sky130_fd_sc_hd__o22ai_1
*CAP
1 *675:A2 0.000156527
2 *664:Y 0.000156527
3 *675:A2 *662:A1_N 5.11466e-05
4 *675:A2 *726:A1 6.27782e-05
5 *664:A2 *675:A2 1.03594e-05
6 *664:B2 *675:A2 4.10737e-05
7 *38:146 *675:A2 6.74426e-05
8 *56:141 *675:A2 2.44579e-05
9 *148:12 *675:A2 3.03782e-05
*RES
1 *664:Y *675:A2 31.7147 
*END

*D_NET *154 0.00124607
*CONN
*I *666:C I *D sky130_fd_sc_hd__nor3_1
*I *665:Y O *D sky130_fd_sc_hd__a21oi_1
*CAP
1 *666:C 0.000239045
2 *665:Y 0.000239045
3 *666:C *726:A1 0.000368319
4 *666:C *726:B1 7.04421e-05
5 *726:B2 *666:C 0.000159038
6 *33:27 *666:C 2.57986e-05
7 *33:50 *666:C 0.000144383
*RES
1 *665:Y *666:C 27.0344 
*END

*D_NET *155 0.00042282
*CONN
*I *675:B1 I *D sky130_fd_sc_hd__a2111oi_1
*I *666:Y O *D sky130_fd_sc_hd__nor3_1
*CAP
1 *675:B1 0.000169095
2 *666:Y 0.000169095
3 *33:27 *675:B1 6.08467e-05
4 *38:70 *675:B1 1.34424e-05
5 *38:76 *675:B1 1.03403e-05
*RES
1 *666:Y *675:B1 20.8855 
*END

*D_NET *156 0.00496462
*CONN
*I *736:A2 I *D sky130_fd_sc_hd__o211ai_1
*I *668:B1_N I *D sky130_fd_sc_hd__a21boi_0
*I *667:Y O *D sky130_fd_sc_hd__nor2_1
*CAP
1 *736:A2 0.00063208
2 *668:B1_N 0.000268419
3 *667:Y 0
4 *156:6 0.000900499
5 *668:B1_N *746:B1 5.04829e-06
6 *668:B1_N *422:139 0.000224538
7 *668:B1_N *445:10 0.000229397
8 *736:A2 *607:A 0.000889679
9 *736:A2 *712:A2 0.000287546
10 *736:A2 *422:139 8.69584e-05
11 *736:A2 *445:10 9.43255e-05
12 *583:A1 *668:B1_N 0.000546755
13 *711:A *736:A2 1.1957e-05
14 *712:A1 *736:A2 0.000107496
15 *30:251 *668:B1_N 0.000174786
16 *34:40 *736:A2 8.859e-05
17 *34:55 *736:A2 0.000277807
18 *40:186 *736:A2 7.78924e-05
19 *48:149 *668:B1_N 6.08467e-05
*RES
1 *667:Y *156:6 13.7491 
2 *156:6 *668:B1_N 24.3421 
3 *156:6 *736:A2 35.1852 
*END

*D_NET *157 0.00336526
*CONN
*I *674:A2 I *D sky130_fd_sc_hd__o31a_1
*I *668:Y O *D sky130_fd_sc_hd__a21boi_0
*CAP
1 *674:A2 0.000623262
2 *668:Y 0.000623262
3 *674:A2 *670:B2 0.000256037
4 *674:A2 *674:A3 0.000154145
5 *674:A2 *674:B1 3.82228e-05
6 *559:A *674:A2 0.000278034
7 *670:A2 *674:A2 6.50727e-05
8 *670:B1 *674:A2 1.37189e-05
9 *30:251 *674:A2 0.000253916
10 *37:52 *674:A2 1.65872e-05
11 *37:64 *674:A2 2.81262e-05
12 *38:60 *674:A2 1.99131e-05
13 *48:149 *674:A2 0.000619447
14 *56:154 *674:A2 0.000331032
15 *56:286 *674:A2 4.44823e-05
*RES
1 *668:Y *674:A2 48.3682 
*END

*D_NET *158 0.0109908
*CONN
*I *861:B2 I *D sky130_fd_sc_hd__o221ai_1
*I *678:B1 I *D sky130_fd_sc_hd__o22ai_1
*I *670:B2 I *D sky130_fd_sc_hd__a221oi_1
*I *669:Y O *D sky130_fd_sc_hd__nand2b_1
*CAP
1 *861:B2 0.00183024
2 *678:B1 0
3 *670:B2 0.000264478
4 *669:Y 5.0429e-05
5 *158:26 0.00141687
6 *158:14 0.00303307
7 *861:B2 *708:C1 1.5714e-05
8 *861:B2 *858:A2 1.83897e-05
9 *861:B2 *860:A2 1.5714e-05
10 *861:B2 *237:34 0.000215753
11 *861:B2 *371:26 0
12 *861:B2 *419:83 0.000470991
13 *158:14 *797:A1 6.03122e-05
14 *158:14 *842:B1 1.91246e-05
15 *158:26 *684:A2 1.15929e-05
16 *158:26 *814:B 0.000644609
17 *158:26 *821:A2 4.0971e-05
18 *158:26 *858:A2 3.13301e-05
19 *158:26 *419:83 4.29059e-05
20 *158:26 *422:44 0.000126363
21 *158:26 *422:48 0.000902305
22 *670:A2 *670:B2 1.92172e-05
23 *674:A2 *670:B2 0.000256037
24 *749:C1 *158:26 0.00010574
25 *26:28 *158:26 0.000111752
26 *26:140 *861:B2 2.15676e-05
27 *30:276 *158:26 2.0456e-06
28 *37:64 *670:B2 0.000172221
29 *38:64 *670:B2 5.13902e-05
30 *39:30 *861:B2 0.000109427
31 *41:18 *158:26 0.000215476
32 *44:70 *861:B2 0.000107496
33 *48:108 *670:B2 0.000132219
34 *57:205 *861:B2 5.76799e-05
35 *70:48 *158:26 0.000331116
36 *70:76 *158:14 2.26985e-05
37 *70:99 *158:14 6.21488e-06
38 *81:48 *158:26 1.2128e-05
39 *95:44 *158:26 4.51619e-05
*RES
1 *669:Y *158:14 17.9613 
2 *158:14 *158:26 12.5769 
3 *158:26 *670:B2 26.0747 
4 *158:26 *678:B1 9.24915 
5 *158:14 *861:B2 23.1769 
*END

*D_NET *159 0.000383078
*CONN
*I *674:A3 I *D sky130_fd_sc_hd__o31a_1
*I *670:Y O *D sky130_fd_sc_hd__a221oi_1
*CAP
1 *674:A3 3.73941e-05
2 *670:Y 3.73941e-05
3 *674:A2 *674:A3 0.000154145
4 *37:64 *674:A3 0.000154145
*RES
1 *670:Y *674:A3 20.3309 
*END

*D_NET *160 0.000533718
*CONN
*I *673:A2 I *D sky130_fd_sc_hd__o211ai_1
*I *671:Y O *D sky130_fd_sc_hd__a21oi_1
*CAP
1 *673:A2 0.000181434
2 *671:Y 0.000181434
3 *673:A2 *673:B1 0.000170851
*RES
1 *671:Y *673:A2 21.4401 
*END

*D_NET *161 0.000818421
*CONN
*I *673:B1 I *D sky130_fd_sc_hd__o211ai_1
*I *672:Y O *D sky130_fd_sc_hd__nand2_1
*CAP
1 *673:B1 0.000172382
2 *672:Y 0.000172382
3 *673:B1 *674:B1 4.17531e-06
4 *671:A1 *673:B1 9.58642e-06
5 *671:A2 *673:B1 4.19058e-05
6 *671:B1 *673:B1 1.65872e-05
7 *672:A *673:B1 0.000112296
8 *672:B *673:B1 6.08467e-05
9 *673:A1 *673:B1 4.87301e-05
10 *673:A2 *673:B1 0.000170851
11 *28:31 *673:B1 8.67924e-06
*RES
1 *672:Y *673:B1 24.9847 
*END

*D_NET *162 0.00227183
*CONN
*I *674:B1 I *D sky130_fd_sc_hd__o31a_1
*I *673:Y O *D sky130_fd_sc_hd__o211ai_1
*CAP
1 *674:B1 0.000433894
2 *673:Y 0.000433894
3 *674:B1 *674:A1 1.71476e-05
4 *674:B1 *457:119 1.96561e-05
5 *659:B1 *674:B1 3.29488e-05
6 *671:A1 *674:B1 0.000107496
7 *673:B1 *674:B1 4.17531e-06
8 *673:C1 *674:B1 2.16355e-05
9 *674:A2 *674:B1 3.82228e-05
10 *699:A *674:B1 0.000137566
11 *37:64 *674:B1 4.78069e-06
12 *38:34 *674:B1 0.000155327
13 *38:60 *674:B1 0.000455437
14 *48:44 *674:B1 1.60211e-05
15 *48:48 *674:B1 9.22013e-06
16 *80:10 *674:B1 0.000384406
*RES
1 *673:Y *674:B1 47.7449 
*END

*D_NET *163 0.000364111
*CONN
*I *675:D1 I *D sky130_fd_sc_hd__a2111oi_1
*I *674:X O *D sky130_fd_sc_hd__o31a_1
*CAP
1 *675:D1 7.81374e-05
2 *674:X 7.81374e-05
3 *675:D1 *674:A1 6.3657e-05
4 *630:B1 *675:D1 7.04109e-05
5 *37:64 *675:D1 7.37686e-05
*RES
1 *674:X *675:D1 29.6384 
*END

*D_NET *164 0.0019998
*CONN
*I *726:A1 I *D sky130_fd_sc_hd__o22ai_1
*I *675:Y O *D sky130_fd_sc_hd__a2111oi_1
*CAP
1 *726:A1 0.000570612
2 *675:Y 0.000570612
3 *726:A1 *726:B1 0.000157107
4 *666:C *726:A1 0.000368319
5 *675:A2 *726:A1 6.27782e-05
6 *726:B2 *726:A1 1.00766e-05
7 *816:A2 *726:A1 3.5063e-05
8 *33:27 *726:A1 5.51483e-06
9 *38:70 *726:A1 0.000109427
10 *38:76 *726:A1 0.000110287
*RES
1 *675:Y *726:A1 31.1336 
*END

*D_NET *165 0.00578636
*CONN
*I *879:A2 I *D sky130_fd_sc_hd__o21ai_0
*I *687:A1 I *D sky130_fd_sc_hd__a21oi_1
*I *685:A1 I *D sky130_fd_sc_hd__o2111ai_1
*I *676:Y O *D sky130_fd_sc_hd__nand2_1
*CAP
1 *879:A2 0.00090916
2 *687:A1 0.000165954
3 *685:A1 0
4 *676:Y 7.30615e-05
5 *165:16 0.000484695
6 *165:6 0.00130096
7 *687:A1 *687:A2 2.1203e-06
8 *687:A1 *758:A2 1.43832e-05
9 *879:A2 *640:A2 9.54657e-05
10 *879:A2 *776:A1 0.000106529
11 *879:A2 *855:B 3.07726e-05
12 *879:A2 *274:31 0.000113843
13 *879:A2 *455:187 0.000113968
14 *879:A2 *455:200 6.31711e-05
15 *165:16 *685:B1 0.000112774
16 *165:16 *749:D1 1.03594e-05
17 *165:16 *771:A 3.70009e-05
18 *165:16 *177:8 1.27831e-06
19 *165:16 *236:20 1.1939e-05
20 *549:B *165:16 6.1438e-05
21 *557:A *687:A1 0.000125407
22 *617:A *687:A1 6.27782e-05
23 *676:B *687:A1 0.000172591
24 *676:B *165:16 5.11545e-05
25 *685:C1 *687:A1 4.24488e-05
26 *685:C1 *165:16 3.00829e-05
27 *787:B_N *879:A2 6.50727e-05
28 *875:B *879:A2 4.33819e-05
29 *884:B *879:A2 0.000977313
30 *884:B *165:6 0.000114584
31 *28:82 *687:A1 8.36586e-06
32 *37:114 *687:A1 6.27782e-05
33 *40:225 *879:A2 0.000161234
34 *40:272 *165:16 0.000160295
35 *40:284 *165:16 0
36 *83:59 *687:A1 0
*RES
1 *676:Y *165:6 10.5271 
2 *165:6 *165:16 17.5324 
3 *165:16 *685:A1 9.24915 
4 *165:16 *687:A1 23.7435 
5 *165:6 *879:A2 38.0267 
*END

*D_NET *166 0.000571174
*CONN
*I *687:B1 I *D sky130_fd_sc_hd__a21oi_1
*I *685:A2 I *D sky130_fd_sc_hd__o2111ai_1
*I *677:Y O *D sky130_fd_sc_hd__nand2b_1
*CAP
1 *687:B1 1.32303e-05
2 *685:A2 9.95183e-05
3 *677:Y 0
4 *166:4 0.000112749
5 *685:A2 *693:C 2.58757e-05
6 *685:A2 *749:D1 0.000134531
7 *687:B1 *693:C 2.58616e-05
8 *676:B *685:A2 4.89512e-05
9 *37:114 *685:A2 6.27782e-05
10 *37:114 *687:B1 4.76794e-05
*RES
1 *677:Y *166:4 9.24915 
2 *166:4 *685:A2 21.635 
3 *166:4 *687:B1 9.97254 
*END

*D_NET *167 0.00209948
*CONN
*I *684:A2 I *D sky130_fd_sc_hd__a211oi_1
*I *678:Y O *D sky130_fd_sc_hd__o22ai_1
*CAP
1 *684:A2 0.000373773
2 *678:Y 0.000373773
3 *684:A2 *678:A1 0.000346117
4 *684:A2 *749:D1 3.57378e-06
5 *684:A2 *236:20 5.91425e-05
6 *684:A2 *455:113 0.000177565
7 *676:B *684:A2 1.03594e-05
8 *884:B *684:A2 0.000158637
9 *30:276 *684:A2 9.12416e-06
10 *30:287 *684:A2 3.0703e-05
11 *62:73 *684:A2 1.85244e-05
12 *95:27 *684:A2 0.000507342
13 *95:44 *684:A2 1.92531e-05
14 *158:26 *684:A2 1.15929e-05
*RES
1 *678:Y *684:A2 42.2031 
*END

*D_NET *168 0.0226679
*CONN
*I *732:A2 I *D sky130_fd_sc_hd__a31oi_1
*I *825:A2 I *D sky130_fd_sc_hd__o22ai_1
*I *739:B1 I *D sky130_fd_sc_hd__a211oi_1
*I *798:A2 I *D sky130_fd_sc_hd__o21ai_0
*I *700:A1 I *D sky130_fd_sc_hd__o211ai_1
*I *681:B I *D sky130_fd_sc_hd__nor3_1
*I *679:Y O *D sky130_fd_sc_hd__nand2_1
*CAP
1 *732:A2 0.000449253
2 *825:A2 0.00156112
3 *739:B1 0.000466168
4 *798:A2 0.00038522
5 *700:A1 0.000441266
6 *681:B 0.000595825
7 *679:Y 0.00149573
8 *168:101 0.00267575
9 *168:85 0.00133691
10 *168:58 0.00101241
11 *168:31 0.00112265
12 *168:14 0.00238493
13 *681:B *779:A 2.02035e-05
14 *681:B *455:164 8.60392e-05
15 *700:A1 *700:A2 0.000114584
16 *700:A1 *175:21 4.95782e-05
17 *732:A2 *858:B1 0.000538117
18 *739:B1 *851:B1 7.50722e-05
19 *739:B1 *861:A2 6.35325e-05
20 *739:B1 *871:A2 0.000298399
21 *739:B1 *385:101 0.000179635
22 *739:B1 *454:419 1.91246e-05
23 *798:A2 *744:B 0.000435024
24 *798:A2 *803:A2 3.99086e-06
25 *798:A2 *838:A2 9.61147e-05
26 *825:A2 *724:A1 0.000213304
27 *825:A2 *196:24 5.27274e-06
28 *825:A2 *212:30 5.51483e-06
29 *825:A2 *218:54 1.87589e-05
30 *168:14 *679:A 0.000121625
31 *168:14 *858:A2 1.43499e-05
32 *168:14 *884:C_N 1.93927e-05
33 *168:14 *209:21 8.36586e-06
34 *168:14 *209:27 0
35 *168:14 *210:14 6.27782e-05
36 *168:14 *371:26 1.00592e-05
37 *168:14 *454:218 0
38 *168:31 *882:A2 0.00022106
39 *168:31 *267:19 8.00052e-05
40 *168:31 *267:32 0.000178322
41 *168:58 *841:A2_N 5.34415e-05
42 *168:58 *267:32 0.000344639
43 *168:58 *267:49 6.51297e-05
44 *168:58 *385:101 3.29488e-05
45 *168:58 *431:24 1.97806e-05
46 *168:85 *858:A2 6.09999e-05
47 *168:85 *385:101 0.000265137
48 *168:101 *574:A1 3.57291e-06
49 *168:101 *714:A1 1.0759e-05
50 *168:101 *724:A1 1.26473e-05
51 *168:101 *724:C1 3.99086e-06
52 *168:101 *842:B1 0.000247617
53 *168:101 *858:A1 5.73392e-05
54 *168:101 *858:B1 0.000107496
55 *168:101 *212:30 0.000104065
56 *168:101 *385:101 8.52691e-06
57 *168:101 *430:53 8.36586e-06
58 *583:A1 *732:A2 1.28832e-05
59 *679:B *168:14 2.16355e-05
60 *696:A *168:31 7.72299e-05
61 *712:A1 *168:85 9.84452e-05
62 *721:A_N *168:14 5.04829e-06
63 *724:B1 *825:A2 1.00766e-05
64 *735:B1 *168:101 0.000139667
65 *754:B1 *168:14 4.69495e-06
66 *778:A1 *168:31 0.00015268
67 *789:B *168:14 8.25029e-05
68 *792:A1 *168:14 5.68462e-05
69 *792:B2 *168:14 2.57465e-06
70 *798:A1 *798:A2 2.16355e-05
71 *838:B1 *798:A2 2.43368e-05
72 *838:B1 *168:58 6.12855e-05
73 *841:A1_N *798:A2 2.53145e-06
74 *870:A *739:B1 3.44712e-06
75 *878:A1 *168:31 4.20184e-06
76 *28:80 *681:B 2.29386e-05
77 *30:349 *168:14 0.00010665
78 *37:147 *798:A2 1.42755e-05
79 *37:147 *168:85 1.91246e-05
80 *37:398 *168:14 9.81288e-06
81 *38:182 *168:31 4.8322e-06
82 *38:182 *168:58 2.19609e-05
83 *38:219 *168:58 0.000170403
84 *38:389 *168:14 1.3091e-05
85 *40:152 *825:A2 4.0143e-05
86 *40:194 *168:58 4.88764e-06
87 *40:194 *168:85 1.39156e-05
88 *41:30 *739:B1 1.47102e-05
89 *41:30 *798:A2 0.00015936
90 *41:30 *168:101 0.000202007
91 *44:294 *825:A2 1.28709e-05
92 *48:119 *168:31 5.61355e-05
93 *48:119 *168:58 9.99873e-05
94 *51:70 *168:85 5.9765e-05
95 *56:314 *798:A2 1.7284e-05
96 *56:428 *168:14 3.12194e-05
97 *56:550 *825:A2 4.0143e-05
98 *56:559 *825:A2 1.07248e-05
99 *59:317 *825:A2 0.0016753
100 *62:73 *681:B 0.000313143
101 *62:73 *168:14 4.4565e-05
102 *70:76 *168:101 4.40272e-05
103 *71:12 *732:A2 5.04829e-06
104 *95:124 *739:B1 2.16355e-05
105 *95:149 *825:A2 1.86611e-05
106 *97:33 *681:B 3.83715e-05
107 *97:33 *168:14 0.000153992
108 *107:18 *798:A2 8.15406e-05
109 *138:32 *168:85 1.01116e-05
110 *138:47 *168:85 6.16621e-05
*RES
1 *679:Y *168:14 24.78 
2 *168:14 *681:B 18.9233 
3 *168:14 *168:31 12.8829 
4 *168:31 *700:A1 20.8625 
5 *168:31 *168:58 21.1823 
6 *168:58 *798:A2 24.9769 
7 *168:58 *168:85 12.3532 
8 *168:85 *168:101 25.9351 
9 *168:101 *739:B1 36.9333 
10 *168:101 *825:A2 33.0244 
11 *168:85 *732:A2 16.6278 
*END

*D_NET *169 0.00258522
*CONN
*I *681:C I *D sky130_fd_sc_hd__nor3_1
*I *855:A I *D sky130_fd_sc_hd__or2_2
*I *680:Y O *D sky130_fd_sc_hd__nor2b_1
*CAP
1 *681:C 0.000568306
2 *855:A 0.000127639
3 *680:Y 0.000695945
4 *681:C *684:B1 4.28856e-07
5 *681:C *696:B 9.73218e-05
6 *681:C *882:B1 0.000160139
7 *681:C *454:212 9.73218e-05
8 *855:A *455:179 9.95542e-06
9 *681:A *681:C 1.34231e-05
10 *878:A1 *855:A 0.000171682
11 *881:A2 *681:C 2.82898e-05
12 *881:B1 *681:C 9.74941e-05
13 *884:B *855:A 0.00051727
*RES
1 *680:Y *855:A 24.7918 
2 *680:Y *681:C 37.6976 
*END

*D_NET *170 0.000498515
*CONN
*I *684:B1 I *D sky130_fd_sc_hd__a211oi_1
*I *681:Y O *D sky130_fd_sc_hd__nor3_1
*CAP
1 *684:B1 0.000207596
2 *681:Y 0.000207596
3 *684:B1 *684:C1 6.08467e-05
4 *676:B *684:B1 2.20471e-05
5 *681:C *684:B1 4.28856e-07
*RES
1 *681:Y *684:B1 21.4401 
*END

*D_NET *171 0.0005455
*CONN
*I *683:A2 I *D sky130_fd_sc_hd__a21oi_1
*I *682:Y O *D sky130_fd_sc_hd__nand2_1
*CAP
1 *683:A2 0.000102087
2 *682:Y 0.000102087
3 *683:A2 *683:B1 6.08467e-05
4 *683:A2 *684:C1 0.000154145
5 *683:A1 *683:A2 4.97617e-05
6 *37:18 *683:A2 6.27782e-05
7 *62:73 *683:A2 1.37939e-05
*RES
1 *682:Y *683:A2 22.0188 
*END

*D_NET *172 0.000845746
*CONN
*I *684:C1 I *D sky130_fd_sc_hd__a211oi_1
*I *683:Y O *D sky130_fd_sc_hd__a21oi_1
*CAP
1 *684:C1 0.000161289
2 *683:Y 0.000161289
3 *676:B *684:C1 5.481e-05
4 *683:A2 *684:C1 0.000154145
5 *684:B1 *684:C1 6.08467e-05
6 *40:278 *684:C1 3.99086e-06
7 *62:73 *684:C1 0.000249375
*RES
1 *683:Y *684:C1 23.6826 
*END

*D_NET *173 0.000683731
*CONN
*I *685:B1 I *D sky130_fd_sc_hd__o2111ai_1
*I *684:Y O *D sky130_fd_sc_hd__a211oi_1
*CAP
1 *685:B1 0.000240672
2 *684:Y 0.000240672
3 *676:B *685:B1 8.16315e-05
4 *685:C1 *685:B1 7.98171e-06
5 *165:16 *685:B1 0.000112774
*RES
1 *684:Y *685:B1 32.1515 
*END

*D_NET *174 0.000935389
*CONN
*I *694:B I *D sky130_fd_sc_hd__nand3_1
*I *685:Y O *D sky130_fd_sc_hd__o2111ai_1
*CAP
1 *694:B 0.000270039
2 *685:Y 0.000270039
3 *694:B *685:D1 1.65872e-05
4 *694:B *694:C 6.17339e-05
5 *694:B *419:28 9.42945e-05
6 *694:B *419:43 1.91246e-05
7 *37:52 *694:B 1.89643e-05
8 *95:27 *694:B 0.000121835
9 *131:20 *694:B 6.27718e-05
*RES
1 *685:Y *694:B 34.7608 
*END

*D_NET *175 0.00606651
*CONN
*I *812:A2 I *D sky130_fd_sc_hd__a21oi_1
*I *773:A2 I *D sky130_fd_sc_hd__o221ai_1
*I *753:A2 I *D sky130_fd_sc_hd__o22ai_1
*I *687:A2 I *D sky130_fd_sc_hd__a21oi_1
*I *686:Y O *D sky130_fd_sc_hd__nand2_1
*CAP
1 *812:A2 0.000121354
2 *773:A2 0.000364035
3 *753:A2 0
4 *687:A2 0.000185043
5 *686:Y 0
6 *175:36 0.000819333
7 *175:21 0.000781121
8 *175:4 0.00063222
9 *687:A2 *189:14 0.000207266
10 *773:A2 *752:B 8.77154e-06
11 *773:A2 *753:B1 0.000114594
12 *773:A2 *811:A1 1.41181e-05
13 *773:A2 *813:A3 1.03403e-05
14 *773:A2 *222:35 1.41307e-05
15 *773:A2 *239:23 3.99086e-06
16 *773:A2 *286:16 9.49135e-05
17 *773:A2 *455:260 9.49135e-05
18 *812:A2 *813:B1 0.000154145
19 *175:21 *700:A2 2.7837e-05
20 *175:21 *759:A2 9.95542e-06
21 *175:21 *189:14 0.000413073
22 *175:36 *759:A2 0.000217709
23 *175:36 *759:C1 0.000165521
24 *175:36 *244:14 0.000110272
25 *676:B *687:A2 5.63909e-05
26 *686:B *687:A2 0.000160617
27 *687:A1 *687:A2 2.1203e-06
28 *700:A1 *175:21 4.95782e-05
29 *715:A_N *812:A2 1.78868e-05
30 *753:A1 *175:21 3.75603e-05
31 *753:A1 *175:36 3.75603e-05
32 *37:126 *687:A2 0.000231627
33 *40:200 *175:21 0.000156955
34 *40:322 *175:21 0.00015281
35 *40:322 *175:36 1.37189e-05
36 *40:331 *175:36 0.000226895
37 *40:356 *812:A2 1.82679e-05
38 *40:356 *175:36 2.85759e-05
39 *40:435 *812:A2 7.92757e-06
40 *62:94 *175:21 0.000303366
*RES
1 *686:Y *175:4 9.24915 
2 *175:4 *687:A2 24.9599 
3 *175:4 *175:21 14.4679 
4 *175:21 *753:A2 9.24915 
5 *175:21 *175:36 11.2126 
6 *175:36 *773:A2 24.6868 
7 *175:36 *812:A2 12.625 
*END

*D_NET *176 0.00113151
*CONN
*I *693:C I *D sky130_fd_sc_hd__or4_1
*I *687:Y O *D sky130_fd_sc_hd__a21oi_1
*CAP
1 *693:C 0.000249572
2 *687:Y 0.000249572
3 *693:C *693:A 6.46815e-05
4 *693:C *758:A2 0.000198568
5 *677:B *693:C 1.47046e-05
6 *685:A2 *693:C 2.58757e-05
7 *687:B1 *693:C 2.58616e-05
8 *757:A2 *693:C 0.000263971
9 *37:114 *693:C 3.87064e-05
*RES
1 *687:Y *693:C 27.0103 
*END

*D_NET *177 0.007393
*CONN
*I *771:A I *D sky130_fd_sc_hd__nor2_1
*I *689:A2 I *D sky130_fd_sc_hd__o21ai_0
*I *688:Y O *D sky130_fd_sc_hd__nor2b_1
*CAP
1 *771:A 0.00122906
2 *689:A2 0.000781995
3 *688:Y 0.000144182
4 *177:8 0.00215523
5 *689:A2 *692:A2_N 4.24629e-05
6 *689:A2 *693:D 0
7 *689:A2 *236:20 0.000234905
8 *689:A2 *454:77 2.79771e-05
9 *771:A *771:B 6.08467e-05
10 *771:A *778:A2 5.51483e-06
11 *771:A *779:A 1.27831e-06
12 *771:A *397:20 0.000122034
13 *771:A *455:220 7.53416e-05
14 *177:8 *779:A 2.33103e-06
15 *549:B *177:8 5.05271e-05
16 *617:A *771:A 0.000107496
17 *676:B *771:A 0.000131896
18 *682:B *689:A2 4.76794e-05
19 *685:C1 *771:A 0.000879788
20 *699:A *689:A2 0
21 *28:80 *771:A 0.000197852
22 *28:82 *771:A 7.12721e-05
23 *30:60 *689:A2 5.27819e-05
24 *30:169 *689:A2 0.000109427
25 *30:328 *771:A 7.18659e-05
26 *40:249 *771:A 0.000236207
27 *41:12 *177:8 0.000131599
28 *56:189 *689:A2 7.74734e-05
29 *62:73 *689:A2 2.06605e-05
30 *97:33 *689:A2 0.000285035
31 *138:20 *689:A2 0
32 *165:16 *771:A 3.70009e-05
33 *165:16 *177:8 1.27831e-06
*RES
1 *688:Y *177:8 17.0345 
2 *177:8 *689:A2 26.8456 
3 *177:8 *771:A 47.0578 
*END

*D_NET *178 0.000771065
*CONN
*I *692:A2_N I *D sky130_fd_sc_hd__o2bb2ai_1
*I *689:Y O *D sky130_fd_sc_hd__o21ai_0
*CAP
1 *692:A2_N 0.000259909
2 *689:Y 0.000259909
3 *692:A2_N *689:A1 4.37753e-05
4 *692:A2_N *457:121 3.2648e-05
5 *614:A2 *692:A2_N 6.38499e-05
6 *689:A2 *692:A2_N 4.24629e-05
7 *30:169 *692:A2_N 7.66391e-06
8 *38:23 *692:A2_N 6.08467e-05
*RES
1 *689:Y *692:A2_N 32.4114 
*END

*D_NET *179 0.000668581
*CONN
*I *691:B1 I *D sky130_fd_sc_hd__a21oi_1
*I *748:B I *D sky130_fd_sc_hd__or4b_1
*I *690:Y O *D sky130_fd_sc_hd__nor3_1
*CAP
1 *691:B1 9.81122e-05
2 *748:B 8.43375e-05
3 *690:Y 4.06156e-05
4 *179:6 0.000223065
5 *691:B1 *691:A2 1.79807e-05
6 *748:B *748:C 4.31703e-05
7 *179:6 *748:C 2.33638e-05
8 *30:60 *691:B1 0.000137936
*RES
1 *690:Y *179:6 9.97254 
2 *179:6 *748:B 10.5271 
3 *179:6 *691:B1 20.9116 
*END

*D_NET *180 0.000208813
*CONN
*I *692:B1 I *D sky130_fd_sc_hd__o2bb2ai_1
*I *691:Y O *D sky130_fd_sc_hd__a21oi_1
*CAP
1 *692:B1 4.83957e-05
2 *691:Y 4.83957e-05
3 *692:B1 *691:A1 1.95055e-05
4 *692:B1 *692:A1_N 0
5 *692:B1 *455:81 5.86632e-05
6 *692:B2 *692:B1 3.38527e-05
*RES
1 *691:Y *692:B1 20.6323 
*END

*D_NET *181 0.0020282
*CONN
*I *693:D I *D sky130_fd_sc_hd__or4_1
*I *692:Y O *D sky130_fd_sc_hd__o2bb2ai_1
*CAP
1 *693:D 0.000622709
2 *692:Y 0.000622709
3 *693:D *693:A 4.44565e-05
4 *693:D *236:20 6.11893e-05
5 *693:D *454:77 2.86353e-06
6 *693:D *454:88 1.18194e-05
7 *693:D *454:276 5.58327e-05
8 *693:D *455:81 1.80647e-05
9 *589:A *693:D 8.33721e-06
10 *689:A2 *693:D 0
11 *692:B2 *693:D 0.000364307
12 *30:56 *693:D 0
13 *30:60 *693:D 0
14 *37:18 *693:D 7.26748e-05
15 *56:164 *693:D 0.000143234
*RES
1 *692:Y *693:D 41.1345 
*END

*D_NET *182 0.000336102
*CONN
*I *694:C I *D sky130_fd_sc_hd__nand3_1
*I *693:X O *D sky130_fd_sc_hd__or4_1
*CAP
1 *694:C 6.38619e-05
2 *693:X 6.38619e-05
3 *694:B *694:C 6.17339e-05
4 *37:52 *694:C 0.000146645
*RES
1 *693:X *694:C 30.1608 
*END

*D_NET *183 0.000582377
*CONN
*I *726:A2 I *D sky130_fd_sc_hd__o22ai_1
*I *694:Y O *D sky130_fd_sc_hd__nand3_1
*CAP
1 *726:A2 0.000166851
2 *694:Y 0.000166851
3 *918:D *726:A2 1.03594e-05
4 *37:52 *726:A2 3.59283e-05
5 *48:149 *726:A2 0
6 *95:27 *726:A2 1.61918e-05
7 *95:44 *726:A2 0.000186194
*RES
1 *694:Y *726:A2 32.2371 
*END

*D_NET *184 0.00147498
*CONN
*I *696:B I *D sky130_fd_sc_hd__nor2_1
*I *776:B1 I *D sky130_fd_sc_hd__a32oi_1
*I *695:Y O *D sky130_fd_sc_hd__nor2b_1
*CAP
1 *696:B 0.000375748
2 *776:B1 0
3 *695:Y 0.000143727
4 *184:10 0.000519475
5 *696:B *640:A2 2.96616e-06
6 *696:B *777:C1 6.50586e-05
7 *696:B *262:10 0
8 *696:B *454:212 0.000141217
9 *184:10 *776:A1 6.9787e-05
10 *184:10 *776:A3 7.56859e-06
11 *184:10 *454:126 0
12 *184:10 *454:191 0
13 *184:10 *454:212 2.77419e-05
14 *681:C *696:B 9.73218e-05
15 *881:A2 *696:B 1.05272e-06
16 *30:131 *184:10 2.33193e-05
17 *40:249 *696:B 0
*RES
1 *695:Y *184:10 21.3269 
2 *184:10 *776:B1 9.24915 
3 *184:10 *696:B 26.0851 
*END

*D_NET *185 0.00126983
*CONN
*I *700:A2 I *D sky130_fd_sc_hd__o211ai_1
*I *696:Y O *D sky130_fd_sc_hd__nor2_1
*CAP
1 *700:A2 0.000376413
2 *696:Y 0.000376413
3 *700:A2 *700:C1 0.000265942
4 *700:A2 *454:212 5.55626e-05
5 *699:A *700:A2 1.91246e-05
6 *700:A1 *700:A2 0.000114584
7 *881:A2 *700:A2 3.3955e-05
8 *37:330 *700:A2 0
9 *49:10 *700:A2 0
10 *175:21 *700:A2 2.7837e-05
*RES
1 *696:Y *700:A2 37.2523 
*END

*D_NET *186 0.00357413
*CONN
*I *731:C I *D sky130_fd_sc_hd__nor3_1
*I *801:B1 I *D sky130_fd_sc_hd__o21ai_0
*I *698:A2 I *D sky130_fd_sc_hd__o21ai_0
*I *697:Y O *D sky130_fd_sc_hd__nor2_1
*CAP
1 *731:C 0.000355231
2 *801:B1 0
3 *698:A2 0.000341894
4 *697:Y 0.00046366
5 *186:32 0.000476997
6 *698:A2 *782:B1 0.00050635
7 *698:A2 *267:32 1.33743e-05
8 *698:A2 *269:12 7.09666e-06
9 *698:A2 *385:101 9.13603e-05
10 *698:A2 *385:105 2.65667e-05
11 *698:A2 *422:63 5.14029e-05
12 *698:A2 *431:24 0.000212198
13 *731:C *735:A2 0.000130108
14 *731:C *800:A1 0.000107858
15 *731:C *802:B 2.08274e-05
16 *731:C *803:C1 1.94615e-05
17 *731:C *840:C 4.8182e-05
18 *731:C *858:B1 1.66626e-05
19 *731:C *217:27 4.16614e-05
20 *186:32 *801:A2 4.31603e-06
21 *186:32 *802:B 1.89592e-05
22 *186:32 *878:A2 2.57847e-05
23 *186:32 *204:52 0.000147116
24 *186:32 *431:24 2.44689e-05
25 *729:A *731:C 8.67924e-06
26 *857:B2 *731:C 1.41976e-05
27 *37:179 *731:C 0.000136347
28 *38:219 *186:32 2.91178e-05
29 *40:194 *698:A2 2.92469e-05
30 *48:108 *698:A2 0.000111708
31 *48:119 *698:A2 9.32983e-05
*RES
1 *697:Y *698:A2 38.2628 
2 *697:Y *186:32 13.5172 
3 *186:32 *801:B1 9.24915 
4 *186:32 *731:C 28.3771 
*END

*D_NET *187 0.000625059
*CONN
*I *700:B1 I *D sky130_fd_sc_hd__o211ai_1
*I *698:Y O *D sky130_fd_sc_hd__o21ai_0
*CAP
1 *700:B1 0.000209451
2 *698:Y 0.000209451
3 *700:B1 *782:B1 0.000160617
4 *107:18 *700:B1 4.5539e-05
*RES
1 *698:Y *700:B1 31.5781 
*END

*D_NET *188 0.00161532
*CONN
*I *700:C1 I *D sky130_fd_sc_hd__o211ai_1
*I *882:C1 I *D sky130_fd_sc_hd__a221oi_1
*I *699:Y O *D sky130_fd_sc_hd__inv_1
*CAP
1 *700:C1 0.000196971
2 *882:C1 0.000104711
3 *699:Y 0.000301681
4 *700:C1 *780:A 1.52231e-05
5 *700:C1 *267:8 8.48378e-05
6 *700:C1 *454:212 1.85244e-05
7 *882:C1 *267:8 1.33419e-05
8 *882:C1 *454:212 0.000174308
9 *685:C1 *882:C1 3.75221e-05
10 *700:A2 *700:C1 0.000265942
11 *878:A1 *882:C1 9.12416e-06
12 *38:182 *882:C1 0.000161827
13 *107:18 *700:C1 0.000231305
*RES
1 *699:Y *882:C1 31.4374 
2 *699:Y *700:C1 34.0683 
*END

*D_NET *189 0.00510768
*CONN
*I *706:B1 I *D sky130_fd_sc_hd__a221oi_1
*I *700:Y O *D sky130_fd_sc_hd__o211ai_1
*CAP
1 *706:B1 0
2 *700:Y 0.00125904
3 *189:14 0.00125904
4 *189:14 *749:D1 9.08856e-05
5 *189:14 *816:B1 0.000192917
6 *189:14 *422:125 8.17829e-06
7 *189:14 *445:10 0.00048448
8 *574:A2 *189:14 1.41976e-05
9 *667:A *189:14 6.08467e-05
10 *667:B *189:14 6.08467e-05
11 *676:B *189:14 0.000113066
12 *686:B *189:14 8.34394e-05
13 *687:A2 *189:14 0.000207266
14 *706:A1 *189:14 6.50727e-05
15 *849:A2 *189:14 0
16 *26:55 *189:14 0.000369586
17 *33:50 *189:14 6.50727e-05
18 *37:126 *189:14 3.43343e-05
19 *37:289 *189:14 6.28334e-05
20 *49:36 *189:14 6.00085e-05
21 *49:49 *189:14 1.71761e-05
22 *49:64 *189:14 0.000155243
23 *62:115 *189:14 3.10697e-05
24 *175:21 *189:14 0.000413073
*RES
1 *700:Y *189:14 49.9212 
2 *189:14 *706:B1 9.24915 
*END

*D_NET *190 0.00388672
*CONN
*I *817:A1 I *D sky130_fd_sc_hd__a31oi_1
*I *705:A1 I *D sky130_fd_sc_hd__a31oi_1
*I *701:Y O *D sky130_fd_sc_hd__nand3_1
*CAP
1 *817:A1 0.000577167
2 *705:A1 0.000442157
3 *701:Y 0
4 *190:4 0.00101932
5 *705:A1 *705:A2 6.41655e-05
6 *705:A1 *706:C1 3.57125e-05
7 *705:A1 *725:A3 0.000115934
8 *705:A1 *816:A3 6.20642e-05
9 *705:A1 *422:125 1.3813e-05
10 *705:A1 *422:139 0.000163967
11 *705:A1 *431:14 0.000257972
12 *817:A1 *749:B1 4.76248e-05
13 *574:A2 *705:A1 1.16628e-05
14 *701:A *817:A1 0.000250244
15 *705:B1 *705:A1 7.92757e-06
16 *849:A2 *817:A1 0.000240279
17 *37:126 *817:A1 1.03594e-05
18 *40:469 *817:A1 0.000121665
19 *49:36 *817:A1 6.3887e-05
20 *49:49 *817:A1 6.75088e-05
21 *62:115 *705:A1 0.000160617
22 *83:91 *817:A1 0.000152666
*RES
1 *701:Y *190:4 9.24915 
2 *190:4 *705:A1 29.1368 
3 *190:4 *817:A1 30.9155 
*END

*D_NET *191 0.00285549
*CONN
*I *705:A2 I *D sky130_fd_sc_hd__a31oi_1
*I *702:Y O *D sky130_fd_sc_hd__o21ai_1
*CAP
1 *705:A2 0.00103957
2 *702:Y 0.00103957
3 *705:A2 *574:B2 0.000116159
4 *705:A2 *706:C1 0
5 *705:A2 *417:51 2.99929e-05
6 *574:A2 *705:A2 9.25729e-05
7 *574:C1 *705:A2 3.31745e-05
8 *575:B1 *705:A2 0.000406808
9 *705:A1 *705:A2 6.41655e-05
10 *110:12 *705:A2 3.34802e-05
*RES
1 *702:Y *705:A2 45.4567 
*END

*D_NET *192 0.000703753
*CONN
*I *704:B2 I *D sky130_fd_sc_hd__o22a_1
*I *703:Y O *D sky130_fd_sc_hd__mux2i_1
*CAP
1 *704:B2 0.000158412
2 *703:Y 0.000158412
3 *704:B2 *486:A 7.63346e-05
4 *704:B2 *705:A3 5.36612e-05
5 *704:B2 *455:447 7.93531e-05
6 *704:B2 *455:456 0.000114584
7 *704:B1 *704:B2 2.14842e-06
8 *50:20 *704:B2 0
9 *56:758 *704:B2 6.08467e-05
*RES
1 *703:Y *704:B2 32.5774 
*END

*D_NET *193 0.00278383
*CONN
*I *705:A3 I *D sky130_fd_sc_hd__a31oi_1
*I *704:X O *D sky130_fd_sc_hd__o22a_1
*CAP
1 *705:A3 0.000713454
2 *704:X 0.000713454
3 *705:A3 *455:456 4.57454e-05
4 *558:A1 *705:A3 1.78088e-05
5 *603:A1 *705:A3 7.31172e-06
6 *607:C *705:A3 4.62586e-06
7 *661:A *705:A3 5.33358e-06
8 *704:B2 *705:A3 5.36612e-05
9 *33:50 *705:A3 5.12223e-05
10 *50:20 *705:A3 0
11 *51:140 *705:A3 6.36155e-05
12 *51:154 *705:A3 0.000647489
13 *51:173 *705:A3 8.72115e-06
14 *95:89 *705:A3 0.000307567
15 *95:124 *705:A3 0.000143819
*RES
1 *704:X *705:A3 47.0846 
*END

*D_NET *194 0.000190246
*CONN
*I *706:C1 I *D sky130_fd_sc_hd__a221oi_1
*I *705:Y O *D sky130_fd_sc_hd__a31oi_1
*CAP
1 *706:C1 4.85611e-05
2 *705:Y 4.85611e-05
3 *706:C1 *725:A3 1.61631e-05
4 *574:A2 *706:C1 2.09033e-05
5 *705:A1 *706:C1 3.57125e-05
6 *705:A2 *706:C1 0
7 *705:B1 *706:C1 1.41976e-05
8 *62:115 *706:C1 6.1478e-06
*RES
1 *705:Y *706:C1 20.3791 
*END

*D_NET *195 0.00136402
*CONN
*I *725:A3 I *D sky130_fd_sc_hd__o32a_1
*I *706:Y O *D sky130_fd_sc_hd__a221oi_1
*CAP
1 *725:A3 0.000361859
2 *706:Y 0.000361859
3 *725:A3 *713:A_N 6.27782e-05
4 *725:A3 *726:B1 3.49422e-05
5 *725:A3 *431:12 4.12745e-05
6 *558:A1 *725:A3 0
7 *574:A2 *725:A3 2.06478e-05
8 *705:A1 *725:A3 0.000115934
9 *706:B2 *725:A3 9.55339e-05
10 *706:C1 *725:A3 1.61631e-05
11 *725:A2 *725:A3 5.04829e-06
12 *34:31 *725:A3 0.000208382
13 *44:18 *725:A3 0
14 *95:76 *725:A3 3.96023e-05
*RES
1 *706:Y *725:A3 37.1452 
*END

*D_NET *196 0.00786003
*CONN
*I *832:B I *D sky130_fd_sc_hd__nand2_1
*I *760:A I *D sky130_fd_sc_hd__nand2_1
*I *719:A2 I *D sky130_fd_sc_hd__o221ai_1
*I *860:A2 I *D sky130_fd_sc_hd__o211a_1
*I *708:A2 I *D sky130_fd_sc_hd__o2111ai_1
*I *707:Y O *D sky130_fd_sc_hd__nand2b_1
*CAP
1 *832:B 0.000153392
2 *760:A 2.48725e-05
3 *719:A2 0
4 *860:A2 0.000422929
5 *708:A2 4.21983e-05
6 *707:Y 3.07124e-05
7 *196:28 0.000663616
8 *196:24 0.00104114
9 *196:10 0.00104964
10 *196:8 0.000366216
11 *760:A *767:A 6.08467e-05
12 *832:B *828:B1 3.54295e-05
13 *832:B *836:B2 0.000163915
14 *832:B *852:A2 1.50924e-05
15 *832:B *204:109 3.82228e-05
16 *832:B *218:84 2.57465e-06
17 *832:B *393:55 0.000165436
18 *860:A2 *708:C1 9.41166e-05
19 *860:A2 *860:A1 9.12416e-06
20 *860:A2 *861:A2 0.000350685
21 *860:A2 *861:B1 2.27085e-05
22 *860:A2 *864:A2 0.000167079
23 *860:A2 *385:101 2.22198e-05
24 *860:A2 *430:47 1.61918e-05
25 *860:A2 *430:53 3.42857e-05
26 *196:10 *763:A2 9.73953e-05
27 *196:10 *825:B1 4.15661e-05
28 *196:10 *218:84 3.35344e-05
29 *196:10 *393:55 0.000299536
30 *196:10 *454:571 2.87468e-05
31 *196:24 *719:C1 0.000118166
32 *196:24 *740:B1 4.54865e-05
33 *196:24 *741:B 0.000154254
34 *196:24 *769:A1 7.02178e-05
35 *196:24 *825:B1 3.88213e-05
36 *196:24 *204:69 1.07821e-05
37 *196:24 *221:10 6.3657e-05
38 *196:24 *226:24 0.000133334
39 *196:24 *273:28 0.000174958
40 *196:24 *334:12 1.5714e-05
41 *196:24 *393:55 3.88213e-05
42 *196:28 *709:B1 0
43 *196:28 *719:C1 0.000255881
44 *196:28 *724:A1 6.50727e-05
45 *708:D1 *196:28 2.41483e-05
46 *825:A2 *196:24 5.27274e-06
47 *861:B2 *860:A2 1.5714e-05
48 *40:95 *196:24 2.7816e-06
49 *40:127 *196:8 6.08467e-05
50 *44:294 *196:24 0.000876996
51 *59:317 *196:24 4.26703e-05
52 *95:124 *708:A2 3.0332e-05
53 *95:124 *196:28 2.51527e-05
54 *95:143 *196:28 9.75243e-05
*RES
1 *707:Y *196:8 14.4725 
2 *196:8 *196:10 5.98452 
3 *196:10 *196:24 15.8032 
4 *196:24 *196:28 5.73894 
5 *196:28 *708:A2 9.97254 
6 *196:28 *860:A2 30.1205 
7 *196:24 *719:A2 9.24915 
8 *196:10 *760:A 14.4725 
9 *196:8 *832:B 19.0989 
*END

*D_NET *197 0.00117488
*CONN
*I *709:B1 I *D sky130_fd_sc_hd__a31oi_1
*I *708:Y O *D sky130_fd_sc_hd__o2111ai_1
*CAP
1 *709:B1 0.000249906
2 *708:Y 0.000249906
3 *709:B1 *430:53 0.000291302
4 *41:30 *709:B1 0.000291228
5 *95:124 *709:B1 9.25383e-05
6 *196:28 *709:B1 0
*RES
1 *708:Y *709:B1 34.9243 
*END

*D_NET *198 0.000434234
*CONN
*I *714:A1 I *D sky130_fd_sc_hd__a21boi_0
*I *709:Y O *D sky130_fd_sc_hd__a31oi_1
*CAP
1 *714:A1 0.000122981
2 *709:Y 0.000122981
3 *714:A1 *724:C1 4.12938e-05
4 *714:A1 *430:53 2.16355e-05
5 *107:69 *714:A1 0.000114584
6 *168:101 *714:A1 1.0759e-05
*RES
1 *709:Y *714:A1 22.0188 
*END

*D_NET *199 0.013264
*CONN
*I *722:A I *D sky130_fd_sc_hd__nor2b_1
*I *830:B1 I *D sky130_fd_sc_hd__a22oi_1
*I *711:B I *D sky130_fd_sc_hd__nor2_1
*I *771:B I *D sky130_fd_sc_hd__nor2_1
*I *710:Y O *D sky130_fd_sc_hd__nor2b_1
*CAP
1 *722:A 1.12177e-05
2 *830:B1 0.000341899
3 *711:B 0.00137109
4 *771:B 0.000742965
5 *710:Y 0.000212898
6 *199:39 0.00263945
7 *199:16 0.00170868
8 *199:12 0.000263367
9 *711:B *836:B2 0
10 *711:B *848:A2 0.000117594
11 *711:B *861:A2 6.00319e-05
12 *711:B *212:30 0
13 *711:B *385:101 6.4674e-06
14 *711:B *397:61 0.000145576
15 *722:A *710:A 4.31485e-06
16 *771:B *710:A 0.000372723
17 *771:B *723:A2 1.44804e-05
18 *771:B *772:A1 2.57986e-05
19 *771:B *772:A2 0.000161252
20 *771:B *773:C1 0.000107496
21 *771:B *209:21 2.01428e-05
22 *771:B *209:27 0.000140624
23 *771:B *222:10 2.30779e-05
24 *771:B *397:20 0.000129082
25 *771:B *454:237 0.000454038
26 *830:B1 *810:A2 0
27 *830:B1 *218:20 2.78588e-05
28 *199:12 *710:A 0.000122382
29 *199:12 *210:14 3.09716e-05
30 *199:16 *710:A 5.60804e-05
31 *199:39 *836:B2 0.00037725
32 *199:39 *212:30 4.15712e-05
33 *199:39 *273:28 0
34 *199:39 *455:555 0
35 *729:B *711:B 7.30797e-05
36 *734:B_N *771:B 6.08467e-05
37 *771:A *771:B 6.08467e-05
38 *789:B *199:39 0
39 *793:A1_N *771:B 3.54295e-05
40 *793:B2 *722:A 7.13655e-06
41 *793:B2 *771:B 6.08467e-05
42 *793:B2 *199:12 6.90394e-06
43 *38:269 *711:B 3.98659e-05
44 *38:389 *771:B 8.65578e-05
45 *40:186 *711:B 3.86581e-05
46 *44:165 *830:B1 5.86296e-05
47 *44:165 *199:16 1.09113e-05
48 *44:165 *199:39 0.00129202
49 *44:179 *771:B 0.000282689
50 *44:179 *199:16 8.36534e-06
51 *44:187 *771:B 6.08467e-05
52 *44:214 *199:12 1.91246e-05
53 *44:229 *199:12 1.56911e-05
54 *68:19 *771:B 9.88895e-05
55 *68:30 *771:B 2.29386e-05
56 *70:99 *711:B 0.00102974
57 *138:47 *711:B 0.000163563
*RES
1 *710:Y *199:12 18.7694 
2 *199:12 *199:16 3.45692 
3 *199:16 *771:B 35.2871 
4 *199:16 *199:39 3.6613 
5 *199:39 *711:B 26.1519 
6 *199:39 *830:B1 18.8741 
7 *199:12 *722:A 14.1278 
*END

*D_NET *200 0.000756409
*CONN
*I *712:A2 I *D sky130_fd_sc_hd__o21ai_0
*I *711:Y O *D sky130_fd_sc_hd__nor2_1
*CAP
1 *712:A2 0.000174057
2 *711:Y 0.000174057
3 *711:A *712:A2 1.13285e-05
4 *736:A2 *712:A2 0.000287546
5 *34:55 *712:A2 0.000109421
*RES
1 *711:Y *712:A2 23.7067 
*END

*D_NET *201 0.000914962
*CONN
*I *714:A2 I *D sky130_fd_sc_hd__a21boi_0
*I *712:Y O *D sky130_fd_sc_hd__o21ai_0
*CAP
1 *714:A2 0.000329369
2 *712:Y 0.000329369
3 *34:55 *714:A2 0.000123802
4 *49:95 *714:A2 0
5 *107:50 *714:A2 0.000132423
*RES
1 *712:Y *714:A2 33.6572 
*END

*D_NET *202 0.00249577
*CONN
*I *724:C1 I *D sky130_fd_sc_hd__o211a_1
*I *714:B1_N I *D sky130_fd_sc_hd__a21boi_0
*I *713:Y O *D sky130_fd_sc_hd__nand2b_1
*CAP
1 *724:C1 0.000312304
2 *714:B1_N 0
3 *713:Y 5.7959e-05
4 *202:6 0.000370263
5 *724:C1 *724:A1 5.51483e-06
6 *724:C1 *725:B1 6.64392e-05
7 *724:C1 *725:B2 0.000488118
8 *724:C1 *848:A2 2.10465e-05
9 *724:C1 *212:30 0.000107496
10 *724:C1 *430:53 0.000159903
11 *202:6 *725:B1 0.000356703
12 *202:6 *725:B2 0.000356703
13 *714:A1 *724:C1 4.12938e-05
14 *724:B1 *724:C1 0.000110458
15 *871:A1 *724:C1 2.10465e-05
16 *107:69 *724:C1 1.65351e-05
17 *168:101 *724:C1 3.99086e-06
*RES
1 *713:Y *202:6 13.3002 
2 *202:6 *714:B1_N 9.24915 
3 *202:6 *724:C1 28.8477 
*END

*D_NET *203 0.00128304
*CONN
*I *725:B1 I *D sky130_fd_sc_hd__o32a_1
*I *714:Y O *D sky130_fd_sc_hd__a21boi_0
*CAP
1 *725:B1 0.000196645
2 *714:Y 0.000196645
3 *725:B1 *713:A_N 4.25388e-05
4 *725:B1 *713:B 1.47046e-05
5 *725:B1 *725:B2 0.000270425
6 *724:C1 *725:B1 6.64392e-05
7 *107:69 *725:B1 0.000138938
8 *202:6 *725:B1 0.000356703
*RES
1 *714:Y *725:B1 27.0103 
*END

*D_NET *204 0.0186201
*CONN
*I *833:A1 I *D sky130_fd_sc_hd__a211oi_1
*I *760:B I *D sky130_fd_sc_hd__nand2_1
*I *826:A2 I *D sky130_fd_sc_hd__o211ai_1
*I *764:B I *D sky130_fd_sc_hd__nand2_1
*I *719:B1 I *D sky130_fd_sc_hd__o221ai_1
*I *743:A2 I *D sky130_fd_sc_hd__o21ai_0
*I *772:A2 I *D sky130_fd_sc_hd__a21o_1
*I *883:C I *D sky130_fd_sc_hd__nor3_1
*I *715:Y O *D sky130_fd_sc_hd__nand2b_1
*CAP
1 *833:A1 0
2 *760:B 0.000604455
3 *826:A2 4.00498e-05
4 *764:B 0
5 *719:B1 0.000173049
6 *743:A2 0
7 *772:A2 3.56224e-05
8 *883:C 0.00029085
9 *715:Y 0.000458551
10 *204:115 0.000846432
11 *204:109 0.00141644
12 *204:88 0.00145256
13 *204:69 0.00124513
14 *204:52 0.00150897
15 *204:18 0.000651381
16 *204:8 0.00145839
17 *719:B1 *719:B2 2.16355e-05
18 *719:B1 *719:C1 7.50678e-05
19 *719:B1 *740:B1 1.47978e-05
20 *760:B *767:A 2.16355e-05
21 *760:B *826:C1 7.13655e-06
22 *760:B *218:54 0
23 *760:B *218:84 0.000128957
24 *760:B *273:28 2.41066e-05
25 *760:B *317:10 0
26 *760:B *393:55 5.49916e-05
27 *772:A2 *222:10 0.000111802
28 *826:A2 *827:B1 6.78549e-05
29 *883:C *884:A 1.55025e-05
30 *883:C *222:10 9.65752e-06
31 *883:C *244:14 8.68769e-06
32 *883:C *397:16 2.99778e-05
33 *204:8 *715:B 5.22859e-06
34 *204:8 *813:B1 9.80242e-07
35 *204:8 *819:A2 1.83795e-06
36 *204:18 *759:C1 0.000207471
37 *204:18 *785:A2 1.09323e-05
38 *204:18 *222:10 2.13974e-05
39 *204:18 *286:16 0.000334055
40 *204:52 *785:A2 3.47905e-05
41 *204:52 *802:B 0.00012001
42 *204:52 *821:A2 1.66626e-05
43 *204:52 *258:8 0.000210363
44 *204:52 *286:16 3.5487e-05
45 *204:69 *719:C1 7.68538e-06
46 *204:69 *736:A1 0.000342309
47 *204:69 *221:10 5.43108e-05
48 *204:69 *334:12 8.45896e-06
49 *204:69 *357:18 0.000136747
50 *204:88 *357:18 0.000297529
51 *204:88 *455:424 7.66391e-06
52 *204:109 *718:C 0.000157107
53 *204:109 *766:B 0.000108314
54 *204:109 *766:C 8.47457e-05
55 *204:109 *828:A1 7.54269e-06
56 *204:109 *828:B1 1.82787e-05
57 *204:109 *833:A2 0.000154145
58 *204:109 *852:A2 6.30379e-05
59 *204:109 *237:34 1.72571e-05
60 *204:109 *455:391 7.0179e-06
61 *204:115 *835:A2 0.000245941
62 *204:115 *317:10 0
63 *715:A_N *204:8 0.000107496
64 *717:B_N *204:109 0.000154145
65 *719:A1 *204:69 7.465e-05
66 *719:A1 *204:88 0.00014667
67 *733:B *204:69 5.30145e-05
68 *764:A *204:109 1.49883e-05
69 *771:B *772:A2 0.000161252
70 *802:A *204:52 0.000114584
71 *826:A1 *760:B 7.13655e-06
72 *832:B *204:109 3.82228e-05
73 *871:A1 *204:69 0.000141662
74 *883:B *883:C 0.000164044
75 *26:8 *204:109 6.08467e-05
76 *26:24 *204:52 0.000118002
77 *26:24 *204:69 0.000857859
78 *37:179 *204:52 0
79 *37:377 *883:C 8.91956e-05
80 *37:388 *883:C 2.57847e-05
81 *38:227 *204:52 0.00011815
82 *38:227 *204:69 0.000187287
83 *38:242 *204:69 2.91483e-05
84 *39:30 *760:B 7.42464e-06
85 *39:30 *204:88 0.00011926
86 *39:30 *204:115 4.75721e-06
87 *40:356 *204:8 0.000253916
88 *40:435 *204:8 6.08467e-05
89 *44:83 *204:88 0.000157107
90 *44:85 *204:88 3.00659e-05
91 *44:107 *204:88 6.08467e-05
92 *44:107 *204:109 3.31745e-05
93 *44:124 *204:109 0.000122195
94 *44:294 *760:B 0.000326737
95 *51:70 *204:52 9.65752e-06
96 *51:81 *204:52 0.000111802
97 *56:342 *204:69 0.000179991
98 *56:428 *204:18 9.75548e-06
99 *56:430 *883:C 0.000192767
100 *56:430 *204:18 8.03393e-06
101 *56:436 *883:C 0.000149582
102 *56:584 *760:B 0.000240818
103 *56:612 *204:109 8.7789e-05
104 *56:624 *204:109 0.000114594
105 *59:344 *204:52 4.60221e-06
106 *70:126 *204:109 7.27864e-06
107 *95:143 *204:69 1.40709e-05
108 *186:32 *204:52 0.000147116
109 *196:24 *204:69 1.07821e-05
*RES
1 *715:Y *204:8 20.5732 
2 *204:8 *204:18 9.45309 
3 *204:18 *883:C 22.9514 
4 *204:18 *772:A2 15.5817 
5 *204:8 *204:52 25.2186 
6 *204:52 *743:A2 13.7491 
7 *204:52 *204:69 31.9145 
8 *204:69 *719:B1 12.7938 
9 *204:69 *204:88 17.3717 
10 *204:88 *764:B 9.24915 
11 *204:88 *204:109 31.213 
12 *204:109 *204:115 9.97156 
13 *204:115 *826:A2 14.4725 
14 *204:115 *760:B 26.4789 
15 *204:109 *833:A1 9.24915 
*END

*D_NET *205 0.00188564
*CONN
*P x_in[6] I
*I *716:A I *D sky130_fd_sc_hd__clkdlybuf4s50_1
*CAP
1 x_in[6] 0.000709422
2 *716:A 0.000709422
3 *716:A *888:A1 3.42853e-05
4 *716:A *453:6 0.00021217
5 *663:A *716:A 0.000150845
6 *925:D *716:A 1.87611e-05
7 *925:CLK *716:A 5.07314e-05
*RES
1 x_in[6] *716:A 31.5594 
*END

*D_NET *206 0.00280212
*CONN
*I *824:A2 I *D sky130_fd_sc_hd__a2111oi_0
*I *762:B1 I *D sky130_fd_sc_hd__a211oi_1
*I *718:C I *D sky130_fd_sc_hd__nand3_1
*I *717:Y O *D sky130_fd_sc_hd__nor2b_1
*CAP
1 *824:A2 0.000306266
2 *762:B1 0.000201845
3 *718:C 0.000141581
4 *717:Y 0.000306266
5 *206:4 0.000343426
6 *718:C *852:A2 6.13051e-05
7 *718:C *397:107 3.00174e-06
8 *718:C *397:120 3.22065e-05
9 *718:C *453:243 0.000103829
10 *718:C *455:359 6.08467e-05
11 *762:B1 *770:A2 6.50586e-05
12 *762:B1 *397:107 0.00016805
13 *762:B1 *397:120 0.000107233
14 *762:B1 *429:98 0.000256558
15 *824:A2 *835:A2 0
16 *824:A2 *835:B2 3.90891e-05
17 *824:A2 *836:B2 1.16107e-05
18 *824:A2 *218:84 3.00174e-06
19 *824:A2 *273:28 5.32627e-05
20 *824:A2 *393:47 0.000207591
21 *824:A2 *429:98 1.41761e-05
22 *718:A *718:C 6.27782e-05
23 *917:D *824:A2 9.60366e-05
24 *204:109 *718:C 0.000157107
*RES
1 *717:Y *206:4 9.24915 
2 *206:4 *718:C 23.0524 
3 *206:4 *762:B1 24.1266 
4 *717:Y *824:A2 35.0395 
*END

*D_NET *207 0.00295978
*CONN
*I *719:C1 I *D sky130_fd_sc_hd__o221ai_1
*I *718:Y O *D sky130_fd_sc_hd__nand3_1
*CAP
1 *719:C1 0.000708553
2 *718:Y 0.000708553
3 *719:C1 *719:B2 6.08467e-05
4 *719:C1 *733:A 6.51628e-05
5 *719:C1 *767:A 0.000160617
6 *719:C1 *769:A2 5.43007e-05
7 *719:C1 *843:B 0.00012048
8 *719:C1 *221:10 1.88014e-05
9 *719:C1 *249:34 3.33024e-05
10 *719:C1 *397:107 4.04926e-05
11 *719:C1 *453:243 0.000252522
12 *719:C1 *455:325 1.93033e-05
13 *719:A1 *719:C1 6.50586e-05
14 *719:B1 *719:C1 7.50678e-05
15 *740:A1 *719:C1 0.000194988
16 *95:124 *719:C1 0
17 *196:24 *719:C1 0.000118166
18 *196:28 *719:C1 0.000255881
19 *204:69 *719:C1 7.68538e-06
*RES
1 *718:Y *719:C1 48.7599 
*END

*D_NET *208 0.00118163
*CONN
*I *724:A1 I *D sky130_fd_sc_hd__o211a_1
*I *719:Y O *D sky130_fd_sc_hd__o221ai_1
*CAP
1 *724:A1 0.000274995
2 *719:Y 0.000274995
3 *724:A1 *848:A2 8.96342e-05
4 *724:A1 *861:A2 7.08993e-05
5 *724:A1 *212:30 3.1433e-05
6 *724:B1 *724:A1 2.58757e-05
7 *724:C1 *724:A1 5.51483e-06
8 *825:A2 *724:A1 0.000213304
9 *59:307 *724:A1 9.25867e-05
10 *59:317 *724:A1 1.85244e-05
11 *95:149 *724:A1 6.14682e-06
12 *168:101 *724:A1 1.26473e-05
13 *196:28 *724:A1 6.50727e-05
*RES
1 *719:Y *724:A1 35.787 
*END

*D_NET *209 0.00586443
*CONN
*I *723:A2 I *D sky130_fd_sc_hd__o22ai_1
*I *758:A1 I *D sky130_fd_sc_hd__o21ai_0
*I *778:A2 I *D sky130_fd_sc_hd__o21ai_0
*I *791:A2 I *D sky130_fd_sc_hd__a21oi_1
*I *720:Y O *D sky130_fd_sc_hd__nand2_1
*CAP
1 *723:A2 4.66758e-05
2 *758:A1 3.41868e-05
3 *778:A2 0.000217166
4 *791:A2 7.16897e-05
5 *720:Y 0
6 *209:27 0.00110996
7 *209:21 0.00111098
8 *209:4 0.000277385
9 *758:A1 *397:61 4.07645e-05
10 *758:A1 *455:220 5.84166e-05
11 *778:A2 *781:A1 2.58757e-05
12 *778:A2 *267:8 6.08467e-05
13 *778:A2 *397:20 6.3657e-05
14 *778:A2 *397:61 0.000104234
15 *778:A2 *455:220 0.000100517
16 *209:27 *710:A 0.000285724
17 *209:27 *397:61 0.000206642
18 *209:27 *454:218 0.000445741
19 *209:27 *455:224 8.33283e-05
20 *209:27 *455:241 0.000116073
21 *685:C1 *778:A2 0.000117444
22 *721:A_N *209:21 7.01935e-06
23 *771:A *778:A2 5.51483e-06
24 *771:B *723:A2 1.44804e-05
25 *771:B *209:21 2.01428e-05
26 *771:B *209:27 0.000140624
27 *792:A1 *209:21 9.01299e-06
28 *818:A *723:A2 8.06912e-05
29 *818:A *209:21 6.03216e-05
30 *30:337 *791:A2 3.46116e-05
31 *30:349 *209:21 0.000146911
32 *37:398 *791:A2 3.31745e-05
33 *38:389 *209:21 0.000137204
34 *38:404 *791:A2 1.41976e-05
35 *38:404 *209:21 2.08274e-05
36 *40:379 *791:A2 6.08467e-05
37 *44:179 *209:27 0.000355926
38 *56:428 *209:27 0.000117514
39 *59:358 *758:A1 3.64497e-06
40 *68:19 *209:21 5.77029e-06
41 *68:30 *723:A2 1.03269e-05
42 *168:14 *209:21 8.36586e-06
43 *168:14 *209:27 0
*RES
1 *720:Y *209:4 9.24915 
2 *209:4 *791:A2 11.6846 
3 *209:4 *209:21 10.1698 
4 *209:21 *209:27 9.00567 
5 *209:27 *778:A2 20.3944 
6 *209:27 *758:A1 14.9583 
7 *209:21 *723:A2 15.3735 
*END

*D_NET *210 0.00908979
*CONN
*I *884:C_N I *D sky130_fd_sc_hd__nor3b_1
*I *722:B_N I *D sky130_fd_sc_hd__nor2b_1
*I *857:B1 I *D sky130_fd_sc_hd__o22ai_1
*I *743:B1 I *D sky130_fd_sc_hd__o21ai_0
*I *818:C I *D sky130_fd_sc_hd__nor3_1
*I *721:Y O *D sky130_fd_sc_hd__nand2b_1
*CAP
1 *884:C_N 0.00083493
2 *722:B_N 0
3 *857:B1 8.40881e-05
4 *743:B1 0.000179577
5 *818:C 9.69366e-06
6 *721:Y 0.0010712
7 *210:41 0.000555727
8 *210:26 0.000904921
9 *210:14 0.000839435
10 *743:B1 *803:B1 0.000156946
11 *743:B1 *803:C1 0.000111802
12 *743:B1 *290:22 0.000197841
13 *857:B1 *858:B1 7.4901e-05
14 *857:B1 *258:8 2.96137e-05
15 *857:B1 *455:298 0.000139817
16 *884:C_N *885:A2 0.000211391
17 *884:C_N *263:54 6.55312e-05
18 *884:C_N *397:16 0
19 *210:14 *710:A 4.60375e-07
20 *210:14 *723:A1 2.16355e-05
21 *210:26 *723:A1 2.16355e-05
22 *210:26 *820:A2 0.000122083
23 *210:26 *821:A1 0.000275925
24 *210:26 *821:A4 7.73661e-05
25 *210:26 *836:A1_N 0.000144829
26 *210:26 *836:B2 3.29176e-06
27 *210:41 *836:A1_N 0
28 *210:41 *836:B1 7.60183e-05
29 *210:41 *290:22 0.000147883
30 *679:B *884:C_N 5.04829e-06
31 *751:A *884:C_N 3.50249e-05
32 *751:B *884:C_N 4.66492e-05
33 *792:A1 *210:14 1.45014e-05
34 *792:B2 *210:14 9.29919e-05
35 *793:B2 *210:14 8.22431e-05
36 *793:B2 *210:26 0.000109726
37 *818:A *818:C 2.14842e-06
38 *818:A *210:14 2.55661e-06
39 *818:A *210:26 0.000209858
40 *819:A1 *210:26 4.51176e-05
41 *857:B2 *857:B1 6.36477e-05
42 *878:B1 *884:C_N 0.0002748
43 *30:337 *884:C_N 4.34539e-05
44 *30:349 *210:14 3.3239e-06
45 *37:173 *743:B1 0.000258964
46 *37:210 *743:B1 2.5292e-05
47 *37:377 *884:C_N 0.000260325
48 *37:398 *884:C_N 0.000352054
49 *38:335 *210:26 0
50 *44:214 *210:14 1.91246e-05
51 *51:70 *743:B1 0.000118169
52 *56:342 *743:B1 6.55651e-05
53 *56:501 *210:14 0.000152273
54 *59:323 *210:26 2.62311e-05
55 *59:344 *210:26 6.25468e-06
56 *126:69 *210:14 4.66492e-05
57 *126:69 *210:26 6.27718e-05
58 *126:103 *818:C 2.29386e-05
59 *126:103 *210:41 0.000170406
60 *168:14 *884:C_N 1.93927e-05
61 *168:14 *210:14 6.27782e-05
62 *199:12 *210:14 3.09716e-05
*RES
1 *721:Y *210:14 24.85 
2 *210:14 *210:26 23.5685 
3 *210:26 *818:C 14.1278 
4 *210:26 *210:41 12.391 
5 *210:41 *743:B1 17.1824 
6 *210:41 *857:B1 21.635 
7 *210:14 *722:B_N 9.24915 
8 *721:Y *884:C_N 45.4968 
*END

*D_NET *211 0.000800932
*CONN
*I *723:B2 I *D sky130_fd_sc_hd__o22ai_1
*I *722:Y O *D sky130_fd_sc_hd__nor2b_1
*CAP
1 *723:B2 0.000331269
2 *722:Y 0.000331269
3 *723:B2 *723:A1 0.000127981
4 *126:69 *723:B2 1.04125e-05
*RES
1 *722:Y *723:B2 24.4301 
*END

*D_NET *212 0.00752466
*CONN
*I *724:A2 I *D sky130_fd_sc_hd__o211a_1
*I *723:Y O *D sky130_fd_sc_hd__o22ai_1
*CAP
1 *724:A2 0
2 *723:Y 0.00274194
3 *212:30 0.00274194
4 *212:30 *574:A1 6.25838e-06
5 *212:30 *821:A1 0.000474168
6 *212:30 *836:B2 0.000319454
7 *212:30 *874:B2 0.00012399
8 *212:30 *273:28 6.81895e-05
9 *212:30 *385:101 0.000196528
10 *212:30 *397:61 2.62423e-05
11 *711:B *212:30 0
12 *724:A1 *212:30 3.1433e-05
13 *724:B1 *212:30 3.5063e-05
14 *724:C1 *212:30 0.000107496
15 *729:B *212:30 1.88483e-05
16 *735:B1 *212:30 3.88415e-05
17 *818:A *212:30 0.0004217
18 *825:A2 *212:30 5.51483e-06
19 *59:344 *212:30 2.14262e-05
20 *70:99 *212:30 0
21 *168:101 *212:30 0.000104065
22 *199:39 *212:30 4.15712e-05
*RES
1 *723:Y *212:30 44.3782 
2 *212:30 *724:A2 9.24915 
*END

*D_NET *213 0.00273943
*CONN
*I *725:B2 I *D sky130_fd_sc_hd__o32a_1
*I *724:X O *D sky130_fd_sc_hd__o211a_1
*CAP
1 *725:B2 0.000802148
2 *724:X 0.000802148
3 *725:B2 *713:A_N 1.98846e-05
4 *724:C1 *725:B2 0.000488118
5 *725:B1 *725:B2 0.000270425
6 *202:6 *725:B2 0.000356703
*RES
1 *724:X *725:B2 33.8584 
*END

*D_NET *214 0.00297517
*CONN
*I *726:B1 I *D sky130_fd_sc_hd__o22ai_1
*I *725:X O *D sky130_fd_sc_hd__o32a_1
*CAP
1 *726:B1 0.000635726
2 *725:X 0.000635726
3 *558:A1 *726:B1 0.000270672
4 *661:A *726:B1 4.97286e-05
5 *666:C *726:B1 7.04421e-05
6 *668:A1 *726:B1 0.000367764
7 *701:B *726:B1 0.000103829
8 *725:A3 *726:B1 3.49422e-05
9 *726:A1 *726:B1 0.000157107
10 *726:B2 *726:B1 2.58757e-05
11 *918:D *726:B1 0.000103829
12 *33:50 *726:B1 2.94931e-05
13 *48:149 *726:B1 0.00016722
14 *48:183 *726:B1 3.88213e-05
15 *95:44 *726:B1 4.86868e-05
16 *95:76 *726:B1 0.000235308
*RES
1 *725:X *726:B1 47.773 
*END

*D_NET *215 0.00158069
*CONN
*I *786:A2 I *D sky130_fd_sc_hd__o311ai_1
*I *727:Y O *D sky130_fd_sc_hd__inv_1
*CAP
1 *786:A2 0.000376376
2 *727:Y 0.000376376
3 *786:A2 *785:C1 0
4 *786:A2 *786:B1 2.84758e-05
5 *786:A2 *831:A1 6.27782e-05
6 *786:A2 *380:16 3.75221e-05
7 *786:A2 *385:130 0
8 *786:A2 *397:134 6.27718e-05
9 *786:A2 *429:94 0.000108795
10 *786:A2 *429:98 0.000409777
11 *786:A2 *444:19 7.37686e-05
12 *786:A2 *453:227 0
13 *786:A3 *786:A2 4.40531e-05
14 *824:A1 *786:A2 0
*RES
1 *727:Y *786:A2 38.9442 
*END

*D_NET *216 0.000252565
*CONN
*P x_in[5] I
*I *728:A I *D sky130_fd_sc_hd__clkdlybuf4s50_1
*CAP
1 x_in[5] 7.46709e-05
2 *728:A 7.46709e-05
3 *728:A *887:A 6.34729e-05
4 *728:A *914:A 3.97506e-05
*RES
1 x_in[5] *728:A 18.2045 
*END

*D_NET *217 0.00267982
*CONN
*I *738:B1 I *D sky130_fd_sc_hd__o211ai_1
*I *732:A3 I *D sky130_fd_sc_hd__a31oi_1
*I *800:A1 I *D sky130_fd_sc_hd__a21oi_1
*I *729:X O *D sky130_fd_sc_hd__or2_1
*CAP
1 *738:B1 0.000200488
2 *732:A3 3.66479e-05
3 *800:A1 0.000444214
4 *729:X 0
5 *217:27 0.000381599
6 *217:6 0.000588677
7 *738:B1 *735:A1 2.57847e-05
8 *738:B1 *735:A2 1.80401e-05
9 *738:B1 *737:A2 0
10 *738:B1 *226:24 4.60044e-05
11 *800:A1 *732:B1 3.28433e-06
12 *800:A1 *821:A2 1.23635e-05
13 *800:A1 *858:B1 8.89041e-06
14 *800:A1 *258:8 6.84074e-06
15 *800:A1 *290:22 4.45379e-05
16 *217:27 *732:B1 7.16766e-06
17 *217:27 *735:A2 4.42742e-06
18 *217:27 *858:B1 5.00168e-05
19 *731:C *800:A1 0.000107858
20 *731:C *217:27 4.16614e-05
21 *738:A1 *738:B1 6.36477e-05
22 *857:B2 *738:B1 0.000200632
23 *857:B2 *217:27 0.000184437
24 *37:210 *800:A1 6.3657e-05
25 *37:214 *800:A1 5.40857e-05
26 *51:70 *800:A1 8.4857e-05
*RES
1 *729:X *217:6 13.7491 
2 *217:6 *800:A1 26.3392 
3 *217:6 *217:27 4.32351 
4 *217:27 *732:A3 14.4819 
5 *217:27 *738:B1 19.1136 
*END

*D_NET *218 0.013777
*CONN
*I *805:B2 I *D sky130_fd_sc_hd__o32ai_1
*I *852:A2 I *D sky130_fd_sc_hd__a21oi_1
*I *840:C I *D sky130_fd_sc_hd__nor3_1
*I *731:B I *D sky130_fd_sc_hd__nor3_1
*I *730:X O *D sky130_fd_sc_hd__and2b_1
*CAP
1 *805:B2 0
2 *852:A2 0.000468432
3 *840:C 0.000335995
4 *731:B 0
5 *730:X 0
6 *218:84 0.00121917
7 *218:54 0.00129014
8 *218:20 0.000969545
9 *218:6 0.00117295
10 *840:C *233:37 0.000413628
11 *852:A2 *765:A 6.08467e-05
12 *852:A2 *828:B1 4.66492e-05
13 *852:A2 *393:47 0.00200445
14 *218:20 *808:A 0.00011818
15 *218:20 *810:A2 0
16 *218:20 *857:A2 8.43687e-05
17 *218:20 *233:37 0.000414638
18 *218:20 *453:253 6.94523e-05
19 *218:54 *807:A2 1.66626e-05
20 *218:54 *810:A2 0
21 *218:54 *317:10 0
22 *218:84 *805:A1 4.23858e-05
23 *218:84 *805:A3 3.9739e-05
24 *218:84 *807:A2 3.67708e-05
25 *218:84 *827:A2 1.89644e-05
26 *218:84 *828:B1 0.000107496
27 *218:84 *836:B2 0.00030119
28 *218:84 *317:10 0
29 *218:84 *393:55 2.86829e-05
30 *218:84 *454:571 0.000294978
31 *717:B_N *852:A2 1.65872e-05
32 *718:C *852:A2 6.13051e-05
33 *729:A *840:C 0.000119983
34 *731:A *218:20 6.36477e-05
35 *731:C *840:C 4.8182e-05
36 *760:B *218:54 0
37 *760:B *218:84 0.000128957
38 *824:A2 *218:84 3.00174e-06
39 *825:A2 *218:54 1.87589e-05
40 *826:A1 *218:84 0.000110477
41 *829:B1 *218:20 0.000119182
42 *829:B1 *218:54 0.000289039
43 *830:B1 *218:20 2.78588e-05
44 *832:B *852:A2 1.50924e-05
45 *832:B *218:84 2.57465e-06
46 *833:B1 *218:84 0.00018283
47 *840:A *840:C 0.000159038
48 *856:A_N *218:20 0.000400325
49 *856:B *218:20 1.56314e-05
50 *857:B2 *840:C 7.54269e-06
51 *857:B2 *218:20 0.000263426
52 *860:C1 *852:A2 0.000109421
53 *916:D *218:20 0.000218239
54 *39:30 *218:84 1.90739e-05
55 *40:152 *218:54 6.11447e-06
56 *40:152 *218:84 0.000153225
57 *40:163 *218:54 0.000161318
58 *40:453 *840:C 0.000408868
59 *51:106 *218:54 5.8824e-05
60 *56:584 *218:84 6.25838e-06
61 *56:612 *852:A2 0.000404695
62 *56:624 *852:A2 0.000321834
63 *59:277 *852:A2 0.000203756
64 *196:10 *218:84 3.35344e-05
65 *204:109 *852:A2 6.30379e-05
*RES
1 *730:X *218:6 13.7491 
2 *218:6 *218:20 26.702 
3 *218:20 *731:B 9.24915 
4 *218:20 *840:C 21.2816 
5 *218:6 *218:54 20.5264 
6 *218:54 *218:84 42.996 
7 *218:84 *852:A2 33.29 
8 *218:54 *805:B2 9.24915 
*END

*D_NET *219 0.000518263
*CONN
*I *732:B1 I *D sky130_fd_sc_hd__a31oi_1
*I *731:Y O *D sky130_fd_sc_hd__nor3_1
*CAP
1 *732:B1 0.000188312
2 *731:Y 0.000188312
3 *732:B1 *258:8 4.42742e-06
4 *800:A1 *732:B1 3.28433e-06
5 *857:B2 *732:B1 6.2164e-05
6 *37:214 *732:B1 1.72919e-05
7 *37:227 *732:B1 4.73035e-05
8 *217:27 *732:B1 7.16766e-06
*RES
1 *731:Y *732:B1 31.8218 
*END

*D_NET *220 0.00122758
*CONN
*I *737:A2 I *D sky130_fd_sc_hd__a21oi_1
*I *732:Y O *D sky130_fd_sc_hd__a31oi_1
*CAP
1 *737:A2 0.000323045
2 *732:Y 0.000323045
3 *737:A2 *226:24 5.37799e-06
4 *737:A2 *258:8 0.00026255
5 *580:A1 *737:A2 1.37189e-05
6 *580:A2 *737:A2 1.55025e-05
7 *732:A1 *737:A2 6.00782e-06
8 *738:B1 *737:A2 0
9 *845:A2 *737:A2 0.000111802
10 *40:180 *737:A2 0.000111802
11 *56:380 *737:A2 5.47325e-05
*RES
1 *732:Y *737:A2 35.6236 
*END

*D_NET *221 0.00263786
*CONN
*I *769:A2 I *D sky130_fd_sc_hd__a31oi_1
*I *869:B I *D sky130_fd_sc_hd__nand2_1
*I *736:A1 I *D sky130_fd_sc_hd__o211ai_1
*I *733:Y O *D sky130_fd_sc_hd__nand2_1
*CAP
1 *769:A2 0.000408327
2 *869:B 0
3 *736:A1 0.0002791
4 *733:Y 0
5 *221:10 0.000441013
6 *221:4 0.00057024
7 *736:A1 *225:12 0
8 *769:A2 *733:A 6.40304e-05
9 *769:A2 *740:B1 1.04743e-05
10 *769:A2 *769:A1 2.0945e-05
11 *769:A2 *769:A3 6.3657e-05
12 *769:A2 *225:12 7.8756e-07
13 *769:A2 *226:24 7.86056e-05
14 *221:10 *225:12 1.06443e-05
15 *221:10 *334:12 4.26859e-05
16 *719:C1 *769:A2 5.43007e-05
17 *719:C1 *221:10 1.88014e-05
18 *740:A1 *769:A2 6.3657e-05
19 *26:16 *769:A2 0
20 *56:342 *736:A1 5.03114e-05
21 *196:24 *221:10 6.3657e-05
22 *204:69 *736:A1 0.000342309
23 *204:69 *221:10 5.43108e-05
*RES
1 *733:Y *221:4 9.24915 
2 *221:4 *221:10 8.4405 
3 *221:10 *736:A1 21.297 
4 *221:10 *869:B 13.7491 
5 *221:4 *769:A2 26.4724 
*END

*D_NET *222 0.00500416
*CONN
*I *811:A1 I *D sky130_fd_sc_hd__o21ai_0
*I *752:A I *D sky130_fd_sc_hd__nor2_1
*I *735:A2 I *D sky130_fd_sc_hd__a21oi_1
*I *734:Y O *D sky130_fd_sc_hd__nor2b_1
*CAP
1 *811:A1 1.62166e-05
2 *752:A 0
3 *735:A2 0.00097021
4 *734:Y 0.000352659
5 *222:35 4.57548e-05
6 *222:10 0.00135241
7 *735:A2 *736:B1 4.78118e-05
8 *735:A2 *744:B 4.40022e-05
9 *735:A2 *759:C1 0
10 *735:A2 *773:B2 1.5714e-05
11 *735:A2 *782:A2 0.00012772
12 *735:A2 *801:A1 4.42742e-06
13 *735:A2 *858:B1 0.000160772
14 *735:A2 *878:A2 0.00035184
15 *735:A2 *244:14 0.000151371
16 *735:A2 *422:80 6.32155e-05
17 *735:A2 *422:90 0.00014295
18 *811:A1 *752:B 4.81452e-05
19 *222:10 *759:C1 1.19061e-05
20 *222:10 *772:B1 0
21 *222:10 *244:14 0
22 *222:10 *397:16 1.39717e-06
23 *222:35 *752:B 6.3657e-05
24 *222:35 *759:C1 6.23715e-06
25 *729:B *735:A2 0.000216859
26 *731:C *735:A2 0.000130108
27 *734:B_N *222:10 6.08467e-05
28 *738:B1 *735:A2 1.80401e-05
29 *771:B *222:10 2.30779e-05
30 *772:A2 *222:10 0.000111802
31 *773:A1 *735:A2 7.84457e-06
32 *773:A2 *811:A1 1.41181e-05
33 *773:A2 *222:35 1.41307e-05
34 *857:B2 *735:A2 0.000143963
35 *883:C *222:10 9.65752e-06
36 *37:179 *735:A2 2.37723e-05
37 *38:227 *735:A2 1.13142e-05
38 *44:179 *222:10 9.32983e-05
39 *44:187 *222:10 6.08467e-05
40 *56:342 *735:A2 6.02365e-05
41 *204:18 *222:10 2.13974e-05
42 *217:27 *735:A2 4.42742e-06
*RES
1 *734:Y *222:10 21.6401 
2 *222:10 *735:A2 42.5847 
3 *222:10 *222:35 5.60201 
4 *222:35 *752:A 9.24915 
5 *222:35 *811:A1 9.97254 
*END

*D_NET *223 0.000813116
*CONN
*I *736:B1 I *D sky130_fd_sc_hd__o211ai_1
*I *735:Y O *D sky130_fd_sc_hd__a21oi_1
*CAP
1 *736:B1 0.00017323
2 *735:Y 0.00017323
3 *736:B1 *393:106 0.000107496
4 *736:B1 *397:91 0.000111722
5 *729:B *736:B1 1.5714e-05
6 *735:A2 *736:B1 4.78118e-05
7 *845:A2 *736:B1 9.64718e-05
8 *857:B2 *736:B1 5.6384e-05
9 *56:342 *736:B1 3.10559e-05
*RES
1 *735:Y *736:B1 32.6845 
*END

*D_NET *224 0.000122272
*CONN
*I *737:B1 I *D sky130_fd_sc_hd__a21oi_1
*I *736:Y O *D sky130_fd_sc_hd__o211ai_1
*CAP
1 *737:B1 1.98947e-05
2 *736:Y 1.98947e-05
3 *845:A2 *737:B1 6.08467e-05
4 *40:186 *737:B1 2.16355e-05
*RES
1 *736:Y *737:B1 19.2217 
*END

*D_NET *225 0.00335466
*CONN
*I *750:A2 I *D sky130_fd_sc_hd__o311ai_1
*I *737:Y O *D sky130_fd_sc_hd__a21oi_1
*CAP
1 *750:A2 0
2 *737:Y 0.000811274
3 *225:12 0.000811274
4 *225:12 *733:A 0.000210973
5 *225:12 *740:B1 3.91685e-05
6 *225:12 *741:B 3.63738e-05
7 *225:12 *226:24 9.66301e-05
8 *225:12 *334:12 0.000778475
9 *225:12 *455:389 6.34283e-05
10 *225:12 *455:391 0.000200171
11 *736:A1 *225:12 0
12 *769:A2 *225:12 7.8756e-07
13 *56:380 *225:12 0.000110297
14 *95:153 *225:12 0.000185159
15 *221:10 *225:12 1.06443e-05
*RES
1 *737:Y *225:12 40.876 
2 *225:12 *750:A2 9.24915 
*END

*D_NET *226 0.00259993
*CONN
*I *740:A2 I *D sky130_fd_sc_hd__a21oi_1
*I *738:Y O *D sky130_fd_sc_hd__o211ai_1
*CAP
1 *740:A2 0
2 *738:Y 0.00080079
3 *226:24 0.00080079
4 *226:24 *741:B 3.63738e-05
5 *226:24 *397:91 6.48653e-05
6 *724:B1 *226:24 2.33726e-05
7 *737:A2 *226:24 5.37799e-06
8 *738:A1 *226:24 6.36477e-05
9 *738:B1 *226:24 4.60044e-05
10 *769:A2 *226:24 7.86056e-05
11 *857:B2 *226:24 0.000110605
12 *26:16 *226:24 4.19401e-06
13 *40:95 *226:24 1.43059e-05
14 *56:380 *226:24 7.36104e-05
15 *95:153 *226:24 0.000247422
16 *196:24 *226:24 0.000133334
17 *225:12 *226:24 9.66301e-05
*RES
1 *738:Y *226:24 42.2544 
2 *226:24 *740:A2 9.24915 
*END

*D_NET *227 0.00246814
*CONN
*I *740:B1 I *D sky130_fd_sc_hd__a21oi_1
*I *739:Y O *D sky130_fd_sc_hd__a211oi_1
*CAP
1 *740:B1 0.000551984
2 *739:Y 0.000551984
3 *740:B1 *708:C1 0.000328184
4 *740:B1 *719:B2 0.000305636
5 *740:B1 *733:A 1.5714e-05
6 *740:B1 *237:34 0
7 *708:D1 *740:B1 0.00040884
8 *719:B1 *740:B1 1.47978e-05
9 *769:A2 *740:B1 1.04743e-05
10 *40:95 *740:B1 0.000147993
11 *59:290 *740:B1 4.19401e-06
12 *59:317 *740:B1 0
13 *95:124 *740:B1 4.36818e-05
14 *196:24 *740:B1 4.54865e-05
15 *225:12 *740:B1 3.91685e-05
*RES
1 *739:Y *740:B1 42.5932 
*END

*D_NET *228 0.00366339
*CONN
*I *741:B I *D sky130_fd_sc_hd__nor2_1
*I *740:Y O *D sky130_fd_sc_hd__a21oi_1
*CAP
1 *741:B 0.001006
2 *740:Y 0.001006
3 *741:B *874:B2 0.00102719
4 *741:B *334:12 7.13655e-06
5 *741:B *371:26 0.000344314
6 *32:29 *741:B 7.90654e-06
7 *32:39 *741:B 8.70794e-06
8 *59:317 *741:B 2.91331e-05
9 *196:24 *741:B 0.000154254
10 *225:12 *741:B 3.63738e-05
11 *226:24 *741:B 3.63738e-05
*RES
1 *740:Y *741:B 39.0946 
*END

*D_NET *229 0.000369134
*CONN
*I *750:A3 I *D sky130_fd_sc_hd__o311ai_1
*I *741:Y O *D sky130_fd_sc_hd__nor2_1
*CAP
1 *750:A3 0.000125758
2 *741:Y 0.000125758
3 *750:A3 *824:B1 6.3657e-05
4 *750:A3 *237:34 0
5 *750:A3 *334:12 5.39608e-05
6 *32:305 *750:A3 0
*RES
1 *741:Y *750:A3 30.4689 
*END

*D_NET *230 0.000393826
*CONN
*I *750:B1 I *D sky130_fd_sc_hd__o311ai_1
*I *742:Y O *D sky130_fd_sc_hd__nor2_1
*CAP
1 *750:B1 0.000146622
2 *742:Y 0.000146622
3 *750:B1 *397:134 3.93948e-05
4 *742:A *750:B1 6.11872e-05
*RES
1 *742:Y *750:B1 21.9947 
*END

*D_NET *231 0.00437158
*CONN
*I *744:B I *D sky130_fd_sc_hd__xnor2_1
*I *743:Y O *D sky130_fd_sc_hd__o21ai_0
*CAP
1 *744:B 0.000942048
2 *743:Y 0.000942048
3 *744:B *821:A2 0.00138117
4 *744:B *838:A2 7.14325e-06
5 *735:A2 *744:B 4.40022e-05
6 *749:C1 *744:B 8.8408e-05
7 *798:A2 *744:B 0.000435024
8 *815:B1 *744:B 2.16355e-05
9 *849:A2 *744:B 5.16085e-05
10 *37:137 *744:B 0.000163146
11 *37:147 *744:B 4.49203e-06
12 *38:174 *744:B 7.92757e-06
13 *38:227 *744:B 0.000120725
14 *56:314 *744:B 3.00356e-05
15 *83:91 *744:B 0.000118847
16 *138:32 *744:B 1.33241e-05
*RES
1 *743:Y *744:B 43.2927 
*END

*D_NET *232 0.000376769
*CONN
*I *749:A2 I *D sky130_fd_sc_hd__o2111ai_1
*I *744:Y O *D sky130_fd_sc_hd__xnor2_1
*CAP
1 *749:A2 9.57495e-05
2 *744:Y 9.57495e-05
3 *669:B *749:A2 6.08467e-05
4 *849:A2 *749:A2 6.22114e-05
5 *37:270 *749:A2 6.22114e-05
*RES
1 *744:Y *749:A2 29.6384 
*END

*D_NET *233 0.0136711
*CONN
*I *830:A2 I *D sky130_fd_sc_hd__a22oi_1
*I *746:C1 I *D sky130_fd_sc_hd__o221ai_1
*I *816:A3 I *D sky130_fd_sc_hd__a31oi_1
*I *819:B1 I *D sky130_fd_sc_hd__a21oi_1
*I *745:Y O *D sky130_fd_sc_hd__nor2b_1
*CAP
1 *830:A2 5.85383e-05
2 *746:C1 1.33372e-05
3 *816:A3 0.000609369
4 *819:B1 0.000552267
5 *745:Y 0.000116126
6 *233:43 0.000831466
7 *233:37 0.00231174
8 *233:25 0.00264585
9 *233:8 0.00115272
10 *816:A3 *574:A1 2.35701e-05
11 *816:A3 *749:D1 0.000218568
12 *816:A3 *237:34 1.5714e-05
13 *816:A3 *422:125 0.000394641
14 *816:A3 *431:14 4.15838e-05
15 *819:B1 *796:A 0
16 *819:B1 *819:A2 1.93033e-05
17 *819:B1 *820:A2 0.000161801
18 *830:A2 *317:10 0.000117362
19 *233:25 *796:A 0
20 *233:25 *810:A2 0.000462294
21 *233:25 *443:23 0.000194345
22 *233:37 *830:B2 6.50586e-05
23 *233:43 *574:A1 2.26707e-05
24 *705:A1 *816:A3 6.20642e-05
25 *745:A *233:8 4.15559e-05
26 *746:A1 *233:43 4.73373e-05
27 *797:A2 *816:A3 5.41351e-05
28 *797:A2 *233:43 6.13715e-06
29 *830:A1 *830:A2 6.92075e-05
30 *830:A1 *233:25 0.00020945
31 *840:C *233:37 0.000413628
32 *849:A2 *746:C1 7.13655e-06
33 *856:A_N *233:37 0.000456119
34 *856:B *233:37 5.22859e-06
35 *37:270 *233:43 6.1096e-05
36 *37:278 *746:C1 1.91391e-05
37 *37:278 *816:A3 9.18353e-05
38 *37:278 *233:43 0.000165262
39 *37:289 *746:C1 9.12416e-06
40 *38:335 *819:B1 0
41 *38:335 *830:A2 0
42 *38:335 *233:37 0.000132321
43 *40:453 *233:37 0.000733326
44 *40:469 *233:37 0.000318331
45 *56:416 *819:B1 3.31736e-05
46 *56:416 *830:A2 2.07365e-05
47 *56:416 *233:25 0.000193504
48 *56:416 *233:37 1.36963e-05
49 *56:422 *819:B1 6.4628e-05
50 *59:323 *233:37 0
51 *62:115 *233:43 0
52 *218:20 *233:37 0.000414638
*RES
1 *745:Y *233:8 15.5817 
2 *233:8 *819:B1 27.2545 
3 *233:8 *233:25 19.3792 
4 *233:25 *233:37 48.5305 
5 *233:37 *233:43 5.76425 
6 *233:43 *816:A3 26.5233 
7 *233:43 *746:C1 17.4965 
8 *233:25 *830:A2 12.1005 
*END

*D_NET *234 0.000301359
*CONN
*I *749:B1 I *D sky130_fd_sc_hd__o2111ai_1
*I *746:Y O *D sky130_fd_sc_hd__o221ai_1
*CAP
1 *749:B1 8.28543e-05
2 *746:Y 8.28543e-05
3 *817:A1 *749:B1 4.76248e-05
4 *849:A2 *749:B1 2.12995e-05
5 *37:278 *749:B1 1.91391e-05
6 *49:49 *749:B1 2.43314e-05
7 *49:64 *749:B1 2.32556e-05
*RES
1 *746:Y *749:B1 29.7455 
*END

*D_NET *235 0.00114606
*CONN
*I *748:C I *D sky130_fd_sc_hd__or4b_1
*I *747:Y O *D sky130_fd_sc_hd__nor2_1
*CAP
1 *748:C 0.000205379
2 *747:Y 0.000205379
3 *748:C *513:A 2.57847e-05
4 *748:C *236:20 1.00846e-05
5 *748:C *457:154 7.40359e-05
6 *641:B1 *748:C 5.04829e-06
7 *690:C *748:C 0.000116764
8 *747:B *748:C 1.19721e-05
9 *748:A *748:C 6.50586e-05
10 *748:B *748:C 4.31703e-05
11 *56:215 *748:C 0.00036002
12 *179:6 *748:C 2.33638e-05
*RES
1 *747:Y *748:C 26.4315 
*END

*D_NET *236 0.00669574
*CONN
*I *749:D1 I *D sky130_fd_sc_hd__o2111ai_1
*I *748:X O *D sky130_fd_sc_hd__or4b_1
*CAP
1 *749:D1 0.000701736
2 *748:X 0.000843227
3 *236:20 0.00154496
4 *749:D1 *422:125 6.57768e-05
5 *749:D1 *431:14 0.000223785
6 *749:D1 *431:24 7.88662e-05
7 *749:D1 *455:113 6.41841e-05
8 *236:20 *513:A 0.000263364
9 *236:20 *691:A2 6.03174e-06
10 *236:20 *454:88 0.000345116
11 *236:20 *457:154 0.000216396
12 *613:A *236:20 0
13 *676:B *749:D1 0.000108031
14 *676:B *236:20 6.0235e-05
15 *677:B *749:D1 3.39118e-05
16 *684:A2 *749:D1 3.57378e-06
17 *684:A2 *236:20 5.91425e-05
18 *685:A2 *749:D1 0.000134531
19 *689:A2 *236:20 0.000234905
20 *693:D *236:20 6.11893e-05
21 *748:C *236:20 1.00846e-05
22 *816:A3 *749:D1 0.000218568
23 *26:55 *749:D1 7.5782e-06
24 *30:60 *236:20 0
25 *30:276 *749:D1 1.82085e-05
26 *30:287 *749:D1 0.000399513
27 *40:272 *236:20 0.000166806
28 *49:49 *749:D1 9.91445e-05
29 *51:41 *749:D1 0.000295573
30 *56:296 *749:D1 0.000291569
31 *62:73 *236:20 2.6543e-05
32 *165:16 *749:D1 1.03594e-05
33 *165:16 *236:20 1.1939e-05
34 *189:14 *749:D1 9.08856e-05
*RES
1 *748:X *236:20 36.3305 
2 *236:20 *749:D1 41.6084 
*END

*D_NET *237 0.0110222
*CONN
*I *750:C1 I *D sky130_fd_sc_hd__o311ai_1
*I *749:Y O *D sky130_fd_sc_hd__o2111ai_1
*CAP
1 *750:C1 0
2 *749:Y 0.00346312
3 *237:34 0.00346312
4 *237:34 *518:B1 0
5 *237:34 *719:B2 0
6 *237:34 *786:B1 0.000165521
7 *237:34 *249:34 4.52494e-05
8 *237:34 *334:12 0
9 *237:34 *397:134 7.16754e-05
10 *237:34 *431:14 1.85244e-05
11 *237:34 *434:26 0
12 *237:34 *454:396 0.000504831
13 *237:34 *455:389 0
14 *237:34 *455:391 0
15 *237:34 *455:439 0.000683545
16 *607:C *237:34 0.00063496
17 *669:B *237:34 0.000203595
18 *740:B1 *237:34 0
19 *750:A3 *237:34 0
20 *797:A2 *237:34 0.000104754
21 *816:A3 *237:34 1.5714e-05
22 *861:B2 *237:34 0.000215753
23 *26:16 *237:34 0.000155495
24 *26:140 *237:34 6.2925e-05
25 *32:305 *237:34 3.94402e-05
26 *39:30 *237:34 0.000136466
27 *40:95 *237:34 2.61452e-05
28 *40:469 *237:34 0.000200794
29 *51:41 *237:34 0.000111666
30 *57:178 *237:34 2.04181e-05
31 *57:205 *237:34 0.000501056
32 *57:220 *237:34 5.43832e-05
33 *70:126 *237:34 0.000105792
34 *204:109 *237:34 1.72571e-05
*RES
1 *749:Y *237:34 45.2013 
2 *237:34 *750:C1 9.24915 
*END

*D_NET *238 0.00114338
*CONN
*I *786:B1 I *D sky130_fd_sc_hd__o311ai_1
*I *750:Y O *D sky130_fd_sc_hd__o311ai_1
*CAP
1 *786:B1 0.000349312
2 *750:Y 0.000349312
3 *786:B1 *397:134 9.01382e-05
4 *786:B1 *453:227 0.000160617
5 *786:A2 *786:B1 2.84758e-05
6 *237:34 *786:B1 0.000165521
*RES
1 *750:Y *786:B1 27.5407 
*END

*D_NET *239 0.0023915
*CONN
*I *811:A2 I *D sky130_fd_sc_hd__o21ai_0
*I *752:B I *D sky130_fd_sc_hd__nor2_1
*I *755:A2 I *D sky130_fd_sc_hd__o21ai_0
*I *751:Y O *D sky130_fd_sc_hd__nor2_1
*CAP
1 *811:A2 1.53772e-05
2 *752:B 7.84175e-05
3 *755:A2 0.000147828
4 *751:Y 5.42586e-05
5 *239:23 0.000319451
6 *239:8 0.000427742
7 *752:B *753:B1 4.17531e-06
8 *752:B *759:C1 0.000161252
9 *755:A2 *755:B1 2.02035e-05
10 *755:A2 *277:12 1.31128e-05
11 *811:A2 *813:A3 1.02267e-05
12 *239:23 *813:A3 0.000107496
13 *239:23 *286:16 8.83008e-06
14 *239:23 *454:237 8.61187e-05
15 *751:A *755:A2 4.68502e-05
16 *751:A *239:23 8.36586e-06
17 *773:A1 *752:B 1.05106e-05
18 *773:A2 *752:B 8.77154e-06
19 *773:A2 *239:23 3.99086e-06
20 *789:B *755:A2 1.30371e-05
21 *811:A1 *752:B 4.81452e-05
22 *30:337 *239:8 0.000107496
23 *40:360 *239:23 0.000273509
24 *44:187 *755:A2 0.000198358
25 *44:187 *239:23 0.000154317
26 *222:35 *752:B 6.3657e-05
*RES
1 *751:Y *239:8 15.0271 
2 *239:8 *755:A2 17.6574 
3 *239:8 *239:23 11.9019 
4 *239:23 *752:B 12.2151 
5 *239:23 *811:A2 9.82786 
*END

*D_NET *240 0.00129229
*CONN
*I *753:B1 I *D sky130_fd_sc_hd__o22ai_1
*I *752:Y O *D sky130_fd_sc_hd__nor2_1
*CAP
1 *753:B1 0.000304002
2 *752:Y 0.000304002
3 *753:B1 *753:B2 5.54078e-05
4 *753:B1 *759:C1 1.88617e-05
5 *753:B1 *773:B1 2.37827e-05
6 *753:B1 *773:B2 6.08467e-05
7 *752:B *753:B1 4.17531e-06
8 *773:A1 *753:B1 6.3657e-05
9 *773:A2 *753:B1 0.000114594
10 *30:318 *753:B1 0.000212189
11 *59:356 *753:B1 0.000130777
*RES
1 *752:Y *753:B1 36.5696 
*END

*D_NET *241 0.000633246
*CONN
*I *759:A2 I *D sky130_fd_sc_hd__a211oi_1
*I *753:Y O *D sky130_fd_sc_hd__o22ai_1
*CAP
1 *759:A2 0.000172367
2 *753:Y 0.000172367
3 *759:A2 *244:14 6.08467e-05
4 *175:21 *759:A2 9.95542e-06
5 *175:36 *759:A2 0.000217709
*RES
1 *753:Y *759:A2 23.5621 
*END

*D_NET *242 0.000457359
*CONN
*I *756:A2 I *D sky130_fd_sc_hd__a31oi_1
*I *754:X O *D sky130_fd_sc_hd__a21o_1
*CAP
1 *756:A2 6.65878e-05
2 *754:X 6.65878e-05
3 *756:A2 *397:16 1.19721e-05
4 *754:A1 *756:A2 6.08467e-05
5 *756:A1 *756:A2 8.65358e-05
6 *37:388 *756:A2 0.000164829
*RES
1 *754:X *756:A2 21.4401 
*END

*D_NET *243 0.000164433
*CONN
*I *756:A3 I *D sky130_fd_sc_hd__a31oi_1
*I *755:Y O *D sky130_fd_sc_hd__o21ai_0
*CAP
1 *756:A3 4.5305e-05
2 *755:Y 4.5305e-05
3 *756:A3 *755:B1 5.04829e-06
4 *756:A3 *397:16 7.92757e-06
5 *883:B *756:A3 0
6 *37:388 *756:A3 6.08467e-05
*RES
1 *755:Y *756:A3 19.8004 
*END

*D_NET *244 0.00448284
*CONN
*I *759:B1 I *D sky130_fd_sc_hd__a211oi_1
*I *756:Y O *D sky130_fd_sc_hd__a31oi_1
*CAP
1 *759:B1 0
2 *756:Y 0.00122636
3 *244:14 0.00122636
4 *244:14 *772:B1 2.21115e-05
5 *244:14 *878:A2 0.000630159
6 *244:14 *884:A 7.16929e-05
7 *244:14 *885:A2 0.000226736
8 *244:14 *397:16 0.000706417
9 *735:A2 *244:14 0.000151371
10 *759:A2 *244:14 6.08467e-05
11 *878:B1 *244:14 5.94319e-06
12 *883:B *244:14 2.16888e-05
13 *883:C *244:14 8.68769e-06
14 *884:B *244:14 1.41976e-05
15 *175:36 *244:14 0.000110272
16 *222:10 *244:14 0
*RES
1 *756:Y *244:14 44.8017 
2 *244:14 *759:B1 9.24915 
*END

*D_NET *245 0.00345624
*CONN
*I *758:A2 I *D sky130_fd_sc_hd__o21ai_0
*I *757:Y O *D sky130_fd_sc_hd__a21oi_1
*CAP
1 *758:A2 0.00138675
2 *757:Y 0.00138675
3 *758:A2 *780:C 3.23518e-05
4 *758:A2 *781:A2 3.82228e-05
5 *687:A1 *758:A2 1.43832e-05
6 *693:C *758:A2 0.000198568
7 *30:318 *758:A2 0.00015533
8 *37:114 *758:A2 2.19265e-05
9 *37:330 *758:A2 1.04731e-05
10 *49:10 *758:A2 0.000158357
11 *107:18 *758:A2 5.31295e-05
*RES
1 *757:Y *758:A2 43.7448 
*END

*D_NET *246 0.00201601
*CONN
*I *759:C1 I *D sky130_fd_sc_hd__a211oi_1
*I *758:Y O *D sky130_fd_sc_hd__o21ai_0
*CAP
1 *759:C1 0.000600549
2 *758:Y 0.000600549
3 *759:C1 *773:B1 0.000154145
4 *759:C1 *773:B2 1.83992e-05
5 *735:A2 *759:C1 0
6 *752:B *759:C1 0.000161252
7 *753:B1 *759:C1 1.88617e-05
8 *773:A1 *759:C1 1.78942e-05
9 *40:356 *759:C1 5.32225e-05
10 *175:36 *759:C1 0.000165521
11 *204:18 *759:C1 0.000207471
12 *222:10 *759:C1 1.19061e-05
13 *222:35 *759:C1 6.23715e-06
*RES
1 *758:Y *759:C1 39.9238 
*END

*D_NET *247 0.00042029
*CONN
*I *785:A2 I *D sky130_fd_sc_hd__o311ai_1
*I *759:Y O *D sky130_fd_sc_hd__a211oi_1
*CAP
1 *785:A2 0.000122609
2 *759:Y 0.000122609
3 *785:A2 *785:B1 2.57986e-05
4 *785:A2 *795:B 6.3657e-05
5 *773:A1 *785:A2 1.09323e-05
6 *37:179 *785:A2 1.9837e-05
7 *59:344 *785:A2 9.12416e-06
8 *204:18 *785:A2 1.09323e-05
9 *204:52 *785:A2 3.47905e-05
*RES
1 *759:Y *785:A2 30.8842 
*END

*D_NET *248 0.000949307
*CONN
*I *763:A2 I *D sky130_fd_sc_hd__a21oi_1
*I *825:B1 I *D sky130_fd_sc_hd__o22ai_1
*I *760:Y O *D sky130_fd_sc_hd__nand2_1
*CAP
1 *763:A2 6.70714e-05
2 *825:B1 0.000130059
3 *760:Y 0
4 *248:6 0.00019713
5 *763:A2 *827:A2 1.83857e-05
6 *763:A2 *454:571 1.07248e-05
7 *825:B1 *393:55 5.67595e-05
8 *825:A1 *825:B1 2.58757e-05
9 *56:559 *763:A2 9.12416e-06
10 *56:559 *825:B1 0.000210961
11 *56:584 *763:A2 4.5433e-05
12 *196:10 *763:A2 9.73953e-05
13 *196:10 *825:B1 4.15661e-05
14 *196:24 *825:B1 3.88213e-05
*RES
1 *760:Y *248:6 13.7491 
2 *248:6 *825:B1 18.3808 
3 *248:6 *763:A2 15.9964 
*END

*D_NET *249 0.0054186
*CONN
*I *762:A2 I *D sky130_fd_sc_hd__a211oi_1
*I *843:B I *D sky130_fd_sc_hd__xnor2_1
*I *859:B I *D sky130_fd_sc_hd__nor2_1
*I *849:B1 I *D sky130_fd_sc_hd__a21oi_1
*I *761:Y O *D sky130_fd_sc_hd__nor2b_1
*CAP
1 *762:A2 0
2 *843:B 0.000135907
3 *859:B 0
4 *849:B1 0.000239969
5 *761:Y 0
6 *249:34 0.000766653
7 *249:8 0.000414946
8 *249:4 0.000805724
9 *843:B *397:107 0.00016962
10 *843:B *453:243 1.62104e-05
11 *849:B1 *849:A1 6.28634e-05
12 *249:8 *859:A 6.78596e-05
13 *249:34 *397:107 4.40272e-05
14 *249:34 *454:514 1.39304e-05
15 *550:B1 *849:B1 8.57082e-05
16 *719:A1 *849:B1 1.34424e-05
17 *719:A1 *249:8 0.000604141
18 *719:A1 *249:34 1.9101e-05
19 *719:C1 *843:B 0.00012048
20 *719:C1 *249:34 3.33024e-05
21 *761:A *249:8 0.000154145
22 *761:B_N *249:8 3.8122e-05
23 *849:A2 *849:B1 0.000162739
24 *39:30 *249:34 2.66294e-05
25 *40:85 *849:B1 0.000260374
26 *40:85 *249:8 0.000217506
27 *40:95 *249:34 0.000805347
28 *44:85 *249:34 1.66771e-05
29 *56:584 *249:34 7.15506e-05
30 *70:126 *249:34 6.37393e-06
31 *237:34 *249:34 4.52494e-05
*RES
1 *761:Y *249:4 9.24915 
2 *249:4 *249:8 7.95736 
3 *249:8 *849:B1 16.6519 
4 *249:8 *859:B 9.24915 
5 *249:4 *249:34 13.9897 
6 *249:34 *843:B 17.9749 
7 *249:34 *762:A2 13.7491 
*END

*D_NET *250 0.000115754
*CONN
*I *763:B1 I *D sky130_fd_sc_hd__a21oi_1
*I *762:Y O *D sky130_fd_sc_hd__a211oi_1
*CAP
1 *763:B1 2.32419e-05
2 *762:Y 2.32419e-05
3 *763:B1 *454:538 6.92705e-05
*RES
1 *762:Y *763:B1 19.2217 
*END

*D_NET *251 0.000982116
*CONN
*I *770:A2 I *D sky130_fd_sc_hd__a221oi_1
*I *763:Y O *D sky130_fd_sc_hd__a21oi_1
*CAP
1 *770:A2 0.00024682
2 *763:Y 0.00024682
3 *770:A2 *769:A3 0.000304238
4 *762:B1 *770:A2 6.50586e-05
5 *770:A1 *770:A2 5.83326e-05
6 *56:588 *770:A2 6.08467e-05
*RES
1 *763:Y *770:A2 25.2018 
*END

*D_NET *252 0.000452073
*CONN
*I *766:B I *D sky130_fd_sc_hd__nand3_1
*I *764:Y O *D sky130_fd_sc_hd__nand2_1
*CAP
1 *766:B 0.000167004
2 *764:Y 0.000167004
3 *44:124 *766:B 9.75148e-06
4 *204:109 *766:B 0.000108314
*RES
1 *764:Y *766:B 21.4642 
*END

*D_NET *253 0.000639761
*CONN
*I *766:C I *D sky130_fd_sc_hd__nand3_1
*I *765:Y O *D sky130_fd_sc_hd__nand2_1
*CAP
1 *766:C 0.000184323
2 *765:Y 0.000184323
3 *766:C *455:391 2.79183e-05
4 *56:624 *766:C 0.000158451
5 *204:109 *766:C 8.47457e-05
*RES
1 *765:Y *766:C 31.1629 
*END

*D_NET *254 0.000985419
*CONN
*I *770:B1 I *D sky130_fd_sc_hd__a221oi_1
*I *766:Y O *D sky130_fd_sc_hd__nand3_1
*CAP
1 *770:B1 0.000250798
2 *766:Y 0.000250798
3 *718:A *770:B1 7.92757e-06
4 *40:110 *770:B1 0.000136543
5 *44:124 *770:B1 0.000339354
*RES
1 *766:Y *770:B1 33.1026 
*END

*D_NET *255 0.00085502
*CONN
*I *768:B I *D sky130_fd_sc_hd__nand2_1
*I *805:A3 I *D sky130_fd_sc_hd__o32ai_1
*I *767:Y O *D sky130_fd_sc_hd__nor2_1
*CAP
1 *768:B 7.70591e-05
2 *805:A3 0.000111592
3 *767:Y 2.54628e-05
4 *255:6 0.000214114
5 *768:B *256:14 4.17531e-06
6 *805:A3 *807:A2 1.79196e-05
7 *255:6 *767:A 3.07133e-05
8 *40:152 *768:B 0.000218245
9 *40:152 *255:6 0.000116
10 *218:84 *805:A3 3.9739e-05
*RES
1 *767:Y *255:6 10.5271 
2 *255:6 *805:A3 21.3269 
3 *255:6 *768:B 12.2151 
*END

*D_NET *256 0.00342682
*CONN
*I *826:B1 I *D sky130_fd_sc_hd__o211ai_1
*I *769:A3 I *D sky130_fd_sc_hd__a31oi_1
*I *768:Y O *D sky130_fd_sc_hd__nand2_1
*CAP
1 *826:B1 1.64125e-05
2 *769:A3 0.000690742
3 *768:Y 0.000204981
4 *256:14 0.000912136
5 *769:A3 *762:A1 0.000247443
6 *769:A3 *770:B2 3.95516e-05
7 *769:A3 *826:C1 0.000274721
8 *769:A3 *827:B1 4.57364e-05
9 *769:A3 *835:A2 7.82454e-06
10 *769:A3 *454:531 0.000107496
11 *769:A3 *454:538 0.000213725
12 *769:A3 *454:542 3.8122e-05
13 *769:A3 *454:559 1.64789e-05
14 *256:14 *826:C1 5.62139e-05
15 *256:14 *317:10 9.04668e-05
16 *768:B *256:14 4.17531e-06
17 *769:A2 *769:A3 6.3657e-05
18 *769:B1 *769:A3 8.39263e-05
19 *770:A2 *769:A3 0.000304238
20 *40:152 *256:14 5.99529e-06
21 *56:588 *769:A3 2.77625e-06
*RES
1 *768:Y *256:14 22.6371 
2 *256:14 *769:A3 29.5042 
3 *256:14 *826:B1 9.82786 
*END

*D_NET *257 0.000268212
*CONN
*I *770:B2 I *D sky130_fd_sc_hd__a221oi_1
*I *769:Y O *D sky130_fd_sc_hd__a31oi_1
*CAP
1 *770:B2 6.16833e-05
2 *769:Y 6.16833e-05
3 *769:A3 *770:B2 3.95516e-05
4 *769:B1 *770:B2 9.90912e-05
5 *770:A1 *770:B2 6.20258e-06
*RES
1 *769:Y *770:B2 20.9337 
*END

*D_NET *258 0.00479015
*CONN
*I *785:A3 I *D sky130_fd_sc_hd__o311ai_1
*I *770:Y O *D sky130_fd_sc_hd__a221oi_1
*CAP
1 *785:A3 1.58642e-05
2 *770:Y 0.00104716
3 *258:8 0.00106302
4 *785:A3 *785:B1 2.57986e-05
5 *785:A3 *795:B 6.08467e-05
6 *258:8 *858:B1 3.85446e-05
7 *258:8 *874:B2 3.91685e-05
8 *258:8 *263:54 0
9 *258:8 *286:16 0.000355307
10 *258:8 *455:298 0
11 *580:B1 *258:8 3.63738e-05
12 *729:B *258:8 4.91325e-05
13 *732:B1 *258:8 4.42742e-06
14 *737:A2 *258:8 0.00026255
15 *738:A1 *258:8 8.98464e-05
16 *800:A1 *258:8 6.84074e-06
17 *857:B1 *258:8 2.96137e-05
18 *26:16 *258:8 0.000463613
19 *37:214 *258:8 0.000188604
20 *37:227 *258:8 0.00013689
21 *51:70 *258:8 1.8063e-05
22 *56:380 *258:8 6.55896e-06
23 *57:231 *258:8 0.000350508
24 *57:237 *258:8 0.000291053
25 *204:52 *258:8 0.000210363
*RES
1 *770:Y *258:8 46.3098 
2 *258:8 *785:A3 14.4725 
*END

*D_NET *259 0.000707799
*CONN
*I *773:B1 I *D sky130_fd_sc_hd__o221ai_1
*I *771:Y O *D sky130_fd_sc_hd__nor2_1
*CAP
1 *773:B1 0.00016475
2 *771:Y 0.00016475
3 *773:B1 *773:B2 1.02267e-05
4 *773:B1 *455:220 8.42542e-05
5 *753:B1 *773:B1 2.37827e-05
6 *759:C1 *773:B1 0.000154145
7 *30:318 *773:B1 2.16355e-05
8 *30:328 *773:B1 8.42542e-05
*RES
1 *771:Y *773:B1 32.2962 
*END

*D_NET *260 0.000625327
*CONN
*I *773:C1 I *D sky130_fd_sc_hd__o221ai_1
*I *772:X O *D sky130_fd_sc_hd__a21o_1
*CAP
1 *773:C1 0.000160515
2 *772:X 0.000160515
3 *773:C1 *878:A2 9.66954e-05
4 *771:B *773:C1 0.000107496
5 *30:328 *773:C1 0.000100106
*RES
1 *772:X *773:C1 31.0235 
*END

*D_NET *261 0.000908927
*CONN
*I *782:A2 I *D sky130_fd_sc_hd__a221o_1
*I *773:Y O *D sky130_fd_sc_hd__o221ai_1
*CAP
1 *782:A2 0.000164326
2 *773:Y 0.000164326
3 *782:A2 *795:B 1.67329e-05
4 *782:A2 *422:80 9.12416e-06
5 *782:A2 *422:90 0.000138396
6 *735:A2 *782:A2 0.00012772
7 *773:A1 *782:A2 8.35311e-05
8 *819:A1 *782:A2 4.60155e-05
9 *37:179 *782:A2 0.000142023
10 *59:356 *782:A2 1.67329e-05
*RES
1 *773:Y *782:A2 33.2665 
*END

*D_NET *262 0.00109974
*CONN
*I *776:B2 I *D sky130_fd_sc_hd__a32oi_1
*I *777:B2 I *D sky130_fd_sc_hd__o221ai_1
*I *774:X O *D sky130_fd_sc_hd__a21bo_1
*CAP
1 *776:B2 5.34138e-05
2 *777:B2 1.04319e-05
3 *774:X 0.00020935
4 *262:10 0.000273196
5 *776:B2 *640:A2 0.000221478
6 *776:B2 *777:A1 8.63207e-06
7 *776:B2 *454:191 4.58907e-05
8 *776:B2 *454:212 5.66371e-05
9 *777:B2 *640:A2 2.16888e-05
10 *777:B2 *454:191 6.36477e-05
11 *262:10 *454:191 5.47232e-06
12 *696:B *262:10 0
13 *777:A2 *262:10 0.000115103
14 *777:B1 *776:B2 1.47978e-05
15 *881:B1 *262:10 0
*RES
1 *774:X *262:10 22.1574 
2 *262:10 *777:B2 9.97254 
3 *262:10 *776:B2 12.7938 
*END

*D_NET *263 0.0122281
*CONN
*I *791:B1 I *D sky130_fd_sc_hd__a21oi_1
*I *844:A2 I *D sky130_fd_sc_hd__a21oi_1
*I *873:A3 I *D sky130_fd_sc_hd__o311a_1
*I *876:C I *D sky130_fd_sc_hd__nor3_1
*I *776:A3 I *D sky130_fd_sc_hd__a32oi_1
*I *775:Y O *D sky130_fd_sc_hd__nor2b_2
*CAP
1 *791:B1 0
2 *844:A2 0.000560227
3 *873:A3 0
4 *876:C 0
5 *776:A3 0.000305294
6 *775:Y 9.79345e-05
7 *263:54 0.00149064
8 *263:48 0.0013094
9 *263:20 0.000809241
10 *263:6 0.000980865
11 *776:A3 *776:A1 1.49589e-05
12 *776:A3 *877:B1 2.08073e-05
13 *776:A3 *454:133 0.000382292
14 *776:A3 *454:149 0
15 *844:A2 *844:A1 1.00766e-05
16 *844:A2 *844:B1 6.08467e-05
17 *844:A2 *846:C 0.000138334
18 *844:A2 *847:A2 0.000213725
19 *844:A2 *847:B1 0.000110122
20 *844:A2 *848:B1 5.481e-05
21 *844:A2 *397:107 1.751e-05
22 *844:A2 *453:243 0.000119035
23 *844:A2 *454:432 8.45919e-06
24 *844:A2 *454:436 5.09325e-05
25 *844:A2 *454:497 1.77537e-06
26 *263:20 *875:A 8.01157e-05
27 *263:20 *877:A1 0.000204901
28 *263:20 *877:B1 0.000125763
29 *263:48 *277:12 0.000165533
30 *263:54 *794:D 2.04806e-05
31 *263:54 *277:12 0.000628316
32 *263:54 *454:436 5.22654e-06
33 *263:54 *455:271 7.70944e-06
34 *263:54 *455:298 0.000754722
35 *578:B *263:54 0.000146976
36 *580:A1 *844:A2 3.20069e-06
37 *580:A1 *263:54 3.5534e-05
38 *729:B *263:54 4.90233e-06
39 *738:A1 *263:54 1.51258e-05
40 *751:A *263:54 4.68502e-05
41 *756:B1 *263:48 1.35239e-05
42 *787:B_N *776:A3 9.28915e-06
43 *788:A *776:A3 3.25584e-05
44 *788:A *263:20 0.000602991
45 *788:B *263:20 8.52283e-05
46 *793:A1_N *263:48 1.86178e-05
47 *794:B *263:54 3.01917e-05
48 *847:A1 *844:A2 3.74158e-05
49 *873:A2 *263:54 9.60366e-05
50 *884:C_N *263:54 6.55312e-05
51 *30:131 *776:A3 7.14746e-05
52 *30:337 *263:54 0.000157107
53 *37:392 *263:48 9.20447e-05
54 *40:360 *263:54 0.000510917
55 *40:381 *263:48 0
56 *40:387 *263:48 0
57 *51:106 *263:54 0
58 *57:248 *844:A2 6.7536e-05
59 *68:8 *263:48 2.26322e-05
60 *68:36 *263:54 0.000408479
61 *70:6 *776:A3 1.15851e-05
62 *126:14 *263:6 0.000159322
63 *126:14 *263:20 0.000725405
64 *184:10 *776:A3 7.56859e-06
65 *258:8 *263:54 0
*RES
1 *775:Y *263:6 11.0817 
2 *263:6 *263:20 25.0829 
3 *263:20 *776:A3 27.374 
4 *263:20 *876:C 9.24915 
5 *263:6 *263:48 17.8913 
6 *263:48 *263:54 36.817 
7 *263:54 *873:A3 13.7491 
8 *263:54 *844:A2 29.2487 
9 *263:48 *791:B1 9.24915 
*END

*D_NET *264 0.00101397
*CONN
*I *777:C1 I *D sky130_fd_sc_hd__o221ai_1
*I *776:Y O *D sky130_fd_sc_hd__a32oi_1
*CAP
1 *777:C1 0.00016383
2 *776:Y 0.00016383
3 *777:C1 *265:12 6.50727e-05
4 *777:C1 *454:191 0.000263135
5 *777:C1 *454:212 0.000167692
6 *696:B *777:C1 6.50586e-05
7 *777:A2 *777:C1 0.000113107
8 *777:B1 *777:C1 1.22436e-05
9 *129:16 *777:C1 0
*RES
1 *776:Y *777:C1 24.6472 
*END

*D_NET *265 0.0054882
*CONN
*I *782:B1 I *D sky130_fd_sc_hd__a221o_1
*I *777:Y O *D sky130_fd_sc_hd__o221ai_1
*CAP
1 *782:B1 0.000459449
2 *777:Y 0.000567071
3 *265:12 0.00102652
4 *782:B1 *795:B 5.11012e-05
5 *782:B1 *269:12 0.000314072
6 *782:B1 *385:105 7.6719e-06
7 *698:A2 *782:B1 0.00050635
8 *700:B1 *782:B1 0.000160617
9 *777:A2 *265:12 3.88655e-06
10 *777:C1 *265:12 6.50727e-05
11 *782:B2 *782:B1 1.60561e-05
12 *881:B1 *265:12 0.000246206
13 *37:330 *265:12 0.000112845
14 *40:225 *265:12 0.000113812
15 *40:249 *265:12 0.000288856
16 *48:108 *782:B1 0.000174699
17 *49:10 *265:12 0.000171578
18 *49:23 *265:12 0.000129685
19 *59:356 *782:B1 0.000408847
20 *83:59 *265:12 0.000476511
21 *83:91 *265:12 0.000187299
*RES
1 *777:Y *265:12 37.4146 
2 *265:12 *782:B1 24.9468 
*END

*D_NET *266 0.000459322
*CONN
*I *781:A1 I *D sky130_fd_sc_hd__o21ai_0
*I *778:Y O *D sky130_fd_sc_hd__o21ai_0
*CAP
1 *781:A1 0.000103939
2 *778:Y 0.000103939
3 *778:A2 *781:A1 2.58757e-05
4 *40:200 *781:A1 0.000112784
5 *62:94 *781:A1 0.000112784
*RES
1 *778:Y *781:A1 30.4689 
*END

*D_NET *267 0.00801296
*CONN
*I *797:A1 I *D sky130_fd_sc_hd__o21ai_0
*I *840:B I *D sky130_fd_sc_hd__nor3_1
*I *814:B I *D sky130_fd_sc_hd__nand2_1
*I *780:C I *D sky130_fd_sc_hd__maj3_1
*I *882:A2 I *D sky130_fd_sc_hd__a221oi_1
*I *779:Y O *D sky130_fd_sc_hd__nor2b_1
*CAP
1 *797:A1 0.000292118
2 *840:B 0
3 *814:B 0.000359549
4 *780:C 7.09154e-05
5 *882:A2 0.000113604
6 *779:Y 0.00028358
7 *267:49 0.000606983
8 *267:32 0.000957835
9 *267:19 0.000403972
10 *267:8 0.00044682
11 *797:A1 *574:A1 0
12 *797:A1 *842:B1 1.00004e-05
13 *797:A1 *385:101 1.23601e-05
14 *814:B *821:A2 0.000704103
15 *267:32 *269:12 0
16 *267:32 *385:101 3.07299e-05
17 *267:49 *841:A2_N 9.35007e-05
18 *267:49 *841:B2 6.75009e-05
19 *267:49 *842:B1 8.96596e-05
20 *267:49 *385:101 4.81549e-05
21 *669:A_N *797:A1 2.09205e-05
22 *685:C1 *267:8 9.29355e-05
23 *698:A2 *267:32 1.33743e-05
24 *699:A *267:8 3.19445e-05
25 *700:C1 *267:8 8.48378e-05
26 *739:A1 *797:A1 2.11547e-05
27 *758:A2 *780:C 3.23518e-05
28 *778:A2 *267:8 6.08467e-05
29 *797:A2 *797:A1 9.37846e-05
30 *838:B1 *267:49 0.000101888
31 *841:A1_N *267:49 2.55661e-06
32 *881:A2 *267:8 6.36477e-05
33 *882:C1 *267:8 1.33419e-05
34 *26:28 *814:B 1.09352e-05
35 *37:137 *814:B 7.09666e-06
36 *40:200 *882:A2 2.45675e-05
37 *41:30 *267:49 5.1493e-06
38 *51:70 *797:A1 0.000545655
39 *56:314 *267:49 3.88213e-05
40 *62:73 *882:A2 0.000100408
41 *62:94 *882:A2 4.19841e-05
42 *62:94 *267:19 8.8371e-05
43 *62:94 *267:32 0.000306995
44 *62:115 *797:A1 2.05342e-06
45 *70:99 *797:A1 7.00171e-06
46 *83:91 *814:B 1.48717e-05
47 *158:14 *797:A1 6.03122e-05
48 *158:26 *814:B 0.000644609
49 *168:31 *882:A2 0.00022106
50 *168:31 *267:19 8.00052e-05
51 *168:31 *267:32 0.000178322
52 *168:58 *267:32 0.000344639
53 *168:58 *267:49 6.51297e-05
*RES
1 *779:Y *267:8 20.5732 
2 *267:8 *882:A2 18.0727 
3 *267:8 *267:19 1.832 
4 *267:19 *780:C 15.0513 
5 *267:19 *267:32 9.92941 
6 *267:32 *814:B 23.1553 
7 *267:32 *267:49 7.4379 
8 *267:49 *840:B 13.7491 
9 *267:49 *797:A1 22.0587 
*END

*D_NET *268 0.000186491
*CONN
*I *781:A2 I *D sky130_fd_sc_hd__o21ai_0
*I *780:X O *D sky130_fd_sc_hd__maj3_1
*CAP
1 *781:A2 4.16049e-05
2 *780:X 4.16049e-05
3 *758:A2 *781:A2 3.82228e-05
4 *30:318 *781:A2 6.50586e-05
*RES
1 *780:X *781:A2 19.7763 
*END

*D_NET *269 0.00284195
*CONN
*I *795:B I *D sky130_fd_sc_hd__nand2_1
*I *782:C1 I *D sky130_fd_sc_hd__a221o_1
*I *781:Y O *D sky130_fd_sc_hd__o21ai_0
*CAP
1 *795:B 0.00022736
2 *782:C1 0
3 *781:Y 0.000200966
4 *269:12 0.000428327
5 *795:B *785:B1 1.50602e-05
6 *795:B *795:A 1.56384e-05
7 *795:B *385:105 0.000744622
8 *269:12 *385:105 0.000120864
9 *698:A2 *269:12 7.09666e-06
10 *782:A2 *795:B 1.67329e-05
11 *782:B1 *795:B 5.11012e-05
12 *782:B1 *269:12 0.000314072
13 *782:B2 *795:B 1.47046e-05
14 *785:A2 *795:B 6.3657e-05
15 *785:A3 *795:B 6.08467e-05
16 *40:194 *269:12 1.25173e-05
17 *40:200 *269:12 0.000200221
18 *59:356 *795:B 8.14834e-05
19 *59:356 *269:12 0.000266681
20 *267:32 *269:12 0
*RES
1 *781:Y *269:12 27.3148 
2 *269:12 *782:C1 9.24915 
3 *269:12 *795:B 18.8944 
*END

*D_NET *270 0.000501039
*CONN
*I *785:B1 I *D sky130_fd_sc_hd__o311ai_1
*I *782:X O *D sky130_fd_sc_hd__a221o_1
*CAP
1 *785:B1 0.000183971
2 *782:X 0.000183971
3 *785:A2 *785:B1 2.57986e-05
4 *785:A3 *785:B1 2.57986e-05
5 *795:B *785:B1 1.50602e-05
6 *59:356 *785:B1 6.64392e-05
*RES
1 *782:X *785:B1 21.4401 
*END

*D_NET *271 0.00105312
*CONN
*I *784:B1 I *D sky130_fd_sc_hd__o21a_1
*I *874:C1 I *D sky130_fd_sc_hd__o221ai_1
*I *783:Y O *D sky130_fd_sc_hd__nor2_1
*CAP
1 *784:B1 0.000132355
2 *874:C1 0.000167172
3 *783:Y 0
4 *271:4 0.000299527
5 *784:B1 *784:A1 0.000107392
6 *784:B1 *453:219 6.23875e-05
7 *874:C1 *874:A2 8.58642e-05
8 *874:C1 *886:A2 1.64789e-05
9 *874:C1 *886:B1 1.55025e-05
10 *874:C1 *357:18 3.64194e-05
11 *874:C1 *453:210 7.16893e-05
12 *874:C1 *453:219 5.8334e-05
*RES
1 *783:Y *271:4 9.24915 
2 *271:4 *874:C1 14.9881 
3 *271:4 *784:B1 13.3243 
*END

*D_NET *272 0.00834877
*CONN
*I *785:C1 I *D sky130_fd_sc_hd__o311ai_1
*I *784:X O *D sky130_fd_sc_hd__o21a_1
*CAP
1 *785:C1 0.00241629
2 *784:X 0.00241629
3 *785:C1 *836:B2 0
4 *785:C1 *273:28 0.00154617
5 *785:C1 *286:16 0.000122519
6 *785:C1 *453:227 0.000238926
7 *785:C1 *455:298 3.46648e-05
8 *786:A2 *785:C1 0
9 *824:A1 *785:C1 6.11074e-05
10 *32:27 *785:C1 6.51063e-05
11 *59:344 *785:C1 1.98448e-05
12 *70:126 *785:C1 0.00142785
*RES
1 *784:X *785:C1 48.1843 
*END

*D_NET *273 0.00732565
*CONN
*I *786:C1 I *D sky130_fd_sc_hd__o311ai_1
*I *785:Y O *D sky130_fd_sc_hd__o311ai_1
*CAP
1 *786:C1 0
2 *785:Y 0.00201993
3 *273:28 0.00201993
4 *273:28 *836:B2 0
5 *273:28 *385:105 6.50727e-05
6 *273:28 *393:55 0.000150654
7 *273:28 *429:98 0.000810534
8 *273:28 *455:298 1.5714e-05
9 *273:28 *455:325 0.000143431
10 *760:B *273:28 2.41066e-05
11 *785:C1 *273:28 0.00154617
12 *824:A2 *273:28 5.32627e-05
13 *59:317 *273:28 0.000114048
14 *59:344 *273:28 0.00011965
15 *196:24 *273:28 0.000174958
16 *199:39 *273:28 0
17 *212:30 *273:28 6.81895e-05
*RES
1 *785:Y *273:28 47.1578 
2 *273:28 *786:C1 9.24915 
*END

*D_NET *274 0.00274417
*CONN
*I *799:A2 I *D sky130_fd_sc_hd__o21ai_0
*I *788:C I *D sky130_fd_sc_hd__nor3_1
*I *855:B I *D sky130_fd_sc_hd__or2_2
*I *787:Y O *D sky130_fd_sc_hd__nor2b_1
*CAP
1 *799:A2 0
2 *788:C 0.000107458
3 *855:B 0.000277689
4 *787:Y 0
5 *274:31 0.000577038
6 *274:4 0.000747269
7 *788:C *790:A2 0
8 *788:C *286:16 6.1148e-05
9 *274:31 *789:A 3.20011e-05
10 *274:31 *880:B1 4.4136e-05
11 *274:31 *885:A2 1.2945e-05
12 *274:31 *454:153 2.91736e-05
13 *274:31 *455:200 5.99691e-05
14 *788:B *788:C 0.000188688
15 *875:B *274:31 3.40719e-06
16 *879:A2 *855:B 3.07726e-05
17 *879:A2 *274:31 0.000113843
18 *40:200 *855:B 4.62935e-05
19 *40:225 *855:B 0.00013588
20 *56:436 *788:C 9.12416e-06
21 *72:28 *274:31 0.000267333
*RES
1 *787:Y *274:4 9.24915 
2 *274:4 *855:B 23.2989 
3 *274:4 *274:31 12.2495 
4 *274:31 *788:C 21.7421 
5 *274:31 *799:A2 9.24915 
*END

*D_NET *275 0.000266291
*CONN
*I *790:A1 I *D sky130_fd_sc_hd__o21ai_0
*I *788:Y O *D sky130_fd_sc_hd__nor3_1
*CAP
1 *790:A1 6.9404e-05
2 *788:Y 6.9404e-05
3 *788:A *790:A1 0.000110337
4 *790:B1 *790:A1 3.01683e-06
5 *126:14 *790:A1 1.41291e-05
*RES
1 *788:Y *790:A1 20.9337 
*END

*D_NET *276 0.000541123
*CONN
*I *790:A2 I *D sky130_fd_sc_hd__o21ai_0
*I *789:Y O *D sky130_fd_sc_hd__nor2_1
*CAP
1 *790:A2 0.000154377
2 *789:Y 0.000154377
3 *790:A2 *789:A 0.000111722
4 *790:A2 *277:12 0.000116971
5 *790:A2 *286:16 3.67528e-06
6 *788:B *790:A2 0
7 *788:C *790:A2 0
*RES
1 *789:Y *790:A2 31.0235 
*END

*D_NET *277 0.00350926
*CONN
*I *794:C I *D sky130_fd_sc_hd__nand4_1
*I *790:Y O *D sky130_fd_sc_hd__o21ai_0
*CAP
1 *794:C 0
2 *790:Y 0.000887648
3 *277:12 0.000887648
4 *277:12 *793:A2_N 5.63969e-05
5 *277:12 *794:D 0.000333471
6 *277:12 *796:C 0.000111722
7 *277:12 *286:16 0
8 *755:A2 *277:12 1.31128e-05
9 *788:B *277:12 0
10 *789:B *277:12 0.000245238
11 *790:A2 *277:12 0.000116971
12 *793:A1_N *277:12 1.09598e-05
13 *40:387 *277:12 0
14 *44:179 *277:12 5.2247e-05
15 *263:48 *277:12 0.000165533
16 *263:54 *277:12 0.000628316
*RES
1 *790:Y *277:12 42.537 
2 *277:12 *794:C 9.24915 
*END

*D_NET *278 0.000329342
*CONN
*I *793:A2_N I *D sky130_fd_sc_hd__a2bb2oi_1
*I *791:Y O *D sky130_fd_sc_hd__a21oi_1
*CAP
1 *793:A2_N 6.90843e-05
2 *791:Y 6.90843e-05
3 *793:A1_N *793:A2_N 0.000122844
4 *44:179 *793:A2_N 7.09666e-06
5 *68:19 *793:A2_N 4.83617e-06
6 *277:12 *793:A2_N 5.63969e-05
*RES
1 *791:Y *793:A2_N 30.1608 
*END

*D_NET *279 0.000369983
*CONN
*I *793:B1 I *D sky130_fd_sc_hd__a2bb2oi_1
*I *792:Y O *D sky130_fd_sc_hd__o22ai_1
*CAP
1 *793:B1 0.000166785
2 *792:Y 0.000166785
3 *792:B1 *793:B1 6.7671e-06
4 *792:B2 *793:B1 5.04829e-06
5 *38:389 *793:B1 2.45965e-05
*RES
1 *792:Y *793:B1 21.3195 
*END

*D_NET *280 0.00146247
*CONN
*I *794:D I *D sky130_fd_sc_hd__nand4_1
*I *793:Y O *D sky130_fd_sc_hd__a2bb2oi_1
*CAP
1 *794:D 0.000387889
2 *793:Y 0.000387889
3 *794:D *715:B 5.35941e-05
4 *794:D *813:B1 7.50722e-05
5 *794:B *794:D 1.07248e-05
6 *44:179 *794:D 2.67558e-05
7 *68:19 *794:D 6.22114e-05
8 *126:86 *794:D 9.61614e-05
9 *126:103 *794:D 8.21849e-06
10 *263:54 *794:D 2.04806e-05
11 *277:12 *794:D 0.000333471
*RES
1 *793:Y *794:D 38.417 
*END

*D_NET *281 0.000434946
*CONN
*I *796:B I *D sky130_fd_sc_hd__nand3_1
*I *794:Y O *D sky130_fd_sc_hd__nand4_1
*CAP
1 *796:B 0.000149075
2 *794:Y 0.000149075
3 *796:B *794:A 6.08467e-05
4 *796:B *796:A 6.00398e-05
5 *796:B *796:C 7.92757e-06
6 *820:A1 *796:B 7.98171e-06
*RES
1 *794:Y *796:B 21.8741 
*END

*D_NET *282 0.000705689
*CONN
*I *796:C I *D sky130_fd_sc_hd__nand3_1
*I *795:Y O *D sky130_fd_sc_hd__nand2_1
*CAP
1 *796:C 0.000149787
2 *795:Y 0.000149787
3 *796:C *794:A 9.08028e-05
4 *796:C *385:105 7.92757e-06
5 *794:B *796:C 8.02384e-05
6 *796:B *796:C 7.92757e-06
7 *820:A1 *796:C 0.000107496
8 *277:12 *796:C 0.000111722
*RES
1 *795:Y *796:C 23.1039 
*END

*D_NET *283 0.000781808
*CONN
*I *836:A1_N I *D sky130_fd_sc_hd__o2bb2ai_1
*I *796:Y O *D sky130_fd_sc_hd__nand3_1
*CAP
1 *836:A1_N 0.000200443
2 *796:Y 0.000200443
3 *836:A1_N *836:A2_N 7.26748e-05
4 *836:A1_N *836:B1 1.32043e-05
5 *818:A *836:A1_N 0.000134829
6 *59:323 *836:A1_N 1.53858e-05
7 *210:26 *836:A1_N 0.000144829
8 *210:41 *836:A1_N 0
*RES
1 *796:Y *836:A1_N 33.0676 
*END

*D_NET *284 0.00074206
*CONN
*I *798:B1 I *D sky130_fd_sc_hd__o21ai_0
*I *797:Y O *D sky130_fd_sc_hd__o21ai_0
*CAP
1 *798:B1 0.000183347
2 *797:Y 0.000183347
3 *669:B *798:B1 0.00015607
4 *41:30 *798:B1 0.000107863
5 *107:18 *798:B1 7.09666e-06
6 *107:33 *798:B1 0.000104337
*RES
1 *797:Y *798:B1 31.5781 
*END

*D_NET *285 0.00232889
*CONN
*I *803:A2 I *D sky130_fd_sc_hd__a211oi_1
*I *798:Y O *D sky130_fd_sc_hd__o21ai_0
*CAP
1 *803:A2 0.000850672
2 *798:Y 0.000850672
3 *803:A2 *841:A2_N 6.06311e-05
4 *803:A2 *841:B1 0.000270835
5 *803:A2 *842:B1 2.54531e-05
6 *798:A1 *803:A2 5.04829e-06
7 *798:A2 *803:A2 3.99086e-06
8 *841:A1_N *803:A2 7.58254e-05
9 *37:160 *803:A2 1.65872e-05
10 *37:173 *803:A2 0.000114417
11 *37:175 *803:A2 3.5063e-05
12 *56:314 *803:A2 1.96948e-05
*RES
1 *798:Y *803:A2 33.9549 
*END

*D_NET *286 0.00401771
*CONN
*I *800:A2 I *D sky130_fd_sc_hd__a21oi_1
*I *799:Y O *D sky130_fd_sc_hd__o21ai_0
*CAP
1 *800:A2 0
2 *799:Y 0.000929546
3 *286:16 0.000929546
4 *286:16 *755:B1 4.4486e-06
5 *286:16 *811:B1 3.17924e-05
6 *286:16 *454:237 9.85296e-05
7 *286:16 *455:245 7.86825e-06
8 *286:16 *455:260 2.10569e-05
9 *286:16 *455:271 1.70577e-05
10 *286:16 *455:298 8.10547e-05
11 *773:A2 *286:16 9.49135e-05
12 *785:C1 *286:16 0.000122519
13 *788:C *286:16 6.1148e-05
14 *789:B *286:16 0
15 *790:A2 *286:16 3.67528e-06
16 *799:B1 *286:16 2.02035e-05
17 *40:360 *286:16 4.60375e-07
18 *44:187 *286:16 0.000347817
19 *56:428 *286:16 1.5714e-05
20 *56:430 *286:16 0.000206009
21 *56:436 *286:16 0.000290668
22 *204:18 *286:16 0.000334055
23 *204:52 *286:16 3.5487e-05
24 *239:23 *286:16 8.83008e-06
25 *258:8 *286:16 0.000355307
26 *277:12 *286:16 0
*RES
1 *799:Y *286:16 47.4634 
2 *286:16 *800:A2 9.24915 
*END

*D_NET *287 0.000336622
*CONN
*I *803:B1 I *D sky130_fd_sc_hd__a211oi_1
*I *800:Y O *D sky130_fd_sc_hd__a21oi_1
*CAP
1 *803:B1 5.80143e-05
2 *800:Y 5.80143e-05
3 *743:B1 *803:B1 0.000156946
4 *51:70 *803:B1 6.36477e-05
*RES
1 *800:Y *803:B1 20.3309 
*END

*D_NET *288 0.000251694
*CONN
*I *802:B I *D sky130_fd_sc_hd__nand2_1
*I *801:Y O *D sky130_fd_sc_hd__o21ai_0
*CAP
1 *802:B 4.59484e-05
2 *801:Y 4.59484e-05
3 *731:C *802:B 2.08274e-05
4 *186:32 *802:B 1.89592e-05
5 *204:52 *802:B 0.00012001
*RES
1 *801:Y *802:B 20.355 
*END

*D_NET *289 0.000563257
*CONN
*I *803:C1 I *D sky130_fd_sc_hd__a211oi_1
*I *802:Y O *D sky130_fd_sc_hd__nand2_1
*CAP
1 *803:C1 0.000102383
2 *802:Y 0.000102383
3 *731:C *803:C1 1.94615e-05
4 *743:B1 *803:C1 0.000111802
5 *37:179 *803:C1 6.96979e-05
6 *37:210 *803:C1 0.000111802
7 *51:70 *803:C1 4.5726e-05
*RES
1 *802:Y *803:C1 31.0235 
*END

*D_NET *290 0.00284904
*CONN
*I *810:A1 I *D sky130_fd_sc_hd__o21a_1
*I *803:Y O *D sky130_fd_sc_hd__a211oi_1
*CAP
1 *810:A1 0
2 *803:Y 0.000748534
3 *290:22 0.000748534
4 *290:22 *796:A 0.000203978
5 *290:22 *810:A2 6.64392e-05
6 *290:22 *810:B1 0.000116505
7 *290:22 *821:B1 1.88563e-05
8 *290:22 *836:B1 0.00019969
9 *290:22 *836:B2 0.000178743
10 *290:22 *296:12 0.000116652
11 *743:B1 *290:22 0.000197841
12 *800:A1 *290:22 4.45379e-05
13 *37:210 *290:22 6.08467e-05
14 *210:41 *290:22 0.000147883
*RES
1 *803:Y *290:22 41.038 
2 *290:22 *810:A1 9.24915 
*END

*D_NET *291 0.000273766
*CONN
*I *805:B1 I *D sky130_fd_sc_hd__o32ai_1
*I *804:Y O *D sky130_fd_sc_hd__nand2_1
*CAP
1 *805:B1 4.25884e-05
2 *804:Y 4.25884e-05
3 *805:B1 *807:A2 9.42945e-05
4 *40:152 *805:B1 9.42945e-05
*RES
1 *804:Y *805:B1 29.3303 
*END

*D_NET *292 0.00062483
*CONN
*I *807:A2 I *D sky130_fd_sc_hd__o21ai_0
*I *805:Y O *D sky130_fd_sc_hd__o32ai_1
*CAP
1 *807:A2 0.000195209
2 *805:Y 0.000195209
3 *807:A2 *804:A 9.36432e-06
4 *807:A2 *807:B1 7.54269e-06
5 *807:A2 *317:10 0
6 *805:A3 *807:A2 1.79196e-05
7 *805:B1 *807:A2 9.42945e-05
8 *807:A1 *807:A2 2.99287e-05
9 *833:C1 *807:A2 1.05106e-05
10 *40:152 *807:A2 1.14175e-05
11 *218:54 *807:A2 1.66626e-05
12 *218:84 *807:A2 3.67708e-05
*RES
1 *805:Y *807:A2 33.0115 
*END

*D_NET *293 0.0024945
*CONN
*I *847:C1 I *D sky130_fd_sc_hd__o211ai_1
*I *807:B1 I *D sky130_fd_sc_hd__o21ai_0
*I *806:Y O *D sky130_fd_sc_hd__nor2b_1
*CAP
1 *847:C1 0.000404023
2 *807:B1 0.00018168
3 *806:Y 0.000585703
4 *807:B1 *804:A 0.000143918
5 *807:B1 *810:A2 6.3657e-05
6 *807:B1 *454:469 0.000159038
7 *847:C1 *847:B1 0.000110122
8 *847:C1 *397:107 0.000106778
9 *847:C1 *454:456 1.50924e-05
10 *847:C1 *454:469 0.000413994
11 *807:A1 *807:B1 0.000114584
12 *807:A2 *807:B1 7.54269e-06
13 *833:C1 *807:B1 3.12608e-05
14 *44:151 *807:B1 0.000157107
*RES
1 *806:Y *807:B1 24.7918 
2 *806:Y *847:C1 35.4845 
*END

*D_NET *294 0.00281539
*CONN
*I *810:A2 I *D sky130_fd_sc_hd__o21a_1
*I *807:Y O *D sky130_fd_sc_hd__o21ai_0
*CAP
1 *810:A2 0.000805162
2 *807:Y 0.000805162
3 *810:A2 *796:A 0
4 *810:A2 *809:B 4.66598e-05
5 *810:A2 *317:10 0.000476101
6 *810:A2 *443:23 2.28064e-05
7 *807:B1 *810:A2 6.3657e-05
8 *830:B1 *810:A2 0
9 *833:C1 *810:A2 2.36617e-05
10 *51:106 *810:A2 4.34481e-05
11 *218:20 *810:A2 0
12 *218:54 *810:A2 0
13 *233:25 *810:A2 0.000462294
14 *290:22 *810:A2 6.64392e-05
*RES
1 *807:Y *810:A2 49.4662 
*END

*D_NET *295 0.000446872
*CONN
*I *809:B I *D sky130_fd_sc_hd__nor2_1
*I *808:Y O *D sky130_fd_sc_hd__nor2_1
*CAP
1 *809:B 0.000145724
2 *808:Y 0.000145724
3 *809:B *808:A 3.53421e-05
4 *809:B *808:B 6.98337e-06
5 *809:B *443:6 6.64392e-05
6 *810:A2 *809:B 4.66598e-05
*RES
1 *808:Y *809:B 31.854 
*END

*D_NET *296 0.00176952
*CONN
*I *810:B1 I *D sky130_fd_sc_hd__o21a_1
*I *821:B1 I *D sky130_fd_sc_hd__o41ai_1
*I *809:Y O *D sky130_fd_sc_hd__nor2_1
*CAP
1 *810:B1 3.33966e-05
2 *821:B1 0.000149483
3 *809:Y 0.000274681
4 *296:12 0.00045756
5 *821:B1 *821:A1 0.000205101
6 *821:B1 *821:A2 3.31745e-05
7 *821:B1 *836:A2_N 0.000349913
8 *821:B1 *836:B1 1.41976e-05
9 *290:22 *810:B1 0.000116505
10 *290:22 *821:B1 1.88563e-05
11 *290:22 *296:12 0.000116652
*RES
1 *809:Y *296:12 22.8836 
2 *296:12 *821:B1 15.0122 
3 *296:12 *810:B1 10.5271 
*END

*D_NET *297 0.0010215
*CONN
*I *836:A2_N I *D sky130_fd_sc_hd__o2bb2ai_1
*I *810:X O *D sky130_fd_sc_hd__o21a_1
*CAP
1 *836:A2_N 0.000285287
2 *810:X 0.000285287
3 *821:B1 *836:A2_N 0.000349913
4 *836:A1_N *836:A2_N 7.26748e-05
5 *59:323 *836:A2_N 2.83365e-05
*RES
1 *810:X *836:A2_N 32.9661 
*END

*D_NET *298 0.000352795
*CONN
*I *813:A3 I *D sky130_fd_sc_hd__a311oi_1
*I *811:Y O *D sky130_fd_sc_hd__o21ai_0
*CAP
1 *813:A3 9.94735e-05
2 *811:Y 9.94735e-05
3 *813:A3 *813:A1 2.57847e-05
4 *773:A1 *813:A3 0
5 *773:A2 *813:A3 1.03403e-05
6 *811:A2 *813:A3 1.02267e-05
7 *239:23 *813:A3 0.000107496
*RES
1 *811:Y *813:A3 21.3195 
*END

*D_NET *299 0.000774404
*CONN
*I *813:B1 I *D sky130_fd_sc_hd__a311oi_1
*I *812:Y O *D sky130_fd_sc_hd__a21oi_1
*CAP
1 *813:B1 0.000231366
2 *812:Y 0.000231366
3 *813:B1 *715:B 2.41274e-06
4 *715:A_N *813:B1 3.99086e-06
5 *794:D *813:B1 7.50722e-05
6 *812:A2 *813:B1 0.000154145
7 *126:86 *813:B1 7.50722e-05
8 *204:8 *813:B1 9.80242e-07
*RES
1 *812:Y *813:B1 31.8568 
*END

*D_NET *300 0.00273467
*CONN
*I *821:A1 I *D sky130_fd_sc_hd__o41ai_1
*I *813:Y O *D sky130_fd_sc_hd__a311oi_1
*CAP
1 *821:A1 0.000547841
2 *813:Y 0.000547841
3 *821:A1 *813:C1 1.03403e-05
4 *821:A1 *821:A2 0.000120272
5 *818:A *821:A1 1.30371e-05
6 *821:B1 *821:A1 0.000205101
7 *59:323 *821:A1 3.51505e-05
8 *59:344 *821:A1 5.24677e-05
9 *68:30 *821:A1 0.000446069
10 *126:69 *821:A1 2.8182e-06
11 *126:103 *821:A1 3.64497e-06
12 *210:26 *821:A1 0.000275925
13 *212:30 *821:A1 0.000474168
*RES
1 *813:Y *821:A1 48.3655 
*END

*D_NET *301 0.000528555
*CONN
*I *817:A2 I *D sky130_fd_sc_hd__a31oi_1
*I *814:Y O *D sky130_fd_sc_hd__nand2_1
*CAP
1 *817:A2 0.000147013
2 *814:Y 0.000147013
3 *817:A2 *431:24 1.37563e-05
4 *37:126 *817:A2 0.000158002
5 *37:137 *817:A2 6.27718e-05
*RES
1 *814:Y *817:A2 21.9947 
*END

*D_NET *302 0.00099497
*CONN
*I *816:B1 I *D sky130_fd_sc_hd__a31oi_1
*I *815:Y O *D sky130_fd_sc_hd__a21oi_1
*CAP
1 *816:B1 0.000181465
2 *815:Y 0.000181465
3 *816:B1 *445:10 0.000109427
4 *815:A2 *816:B1 1.65872e-05
5 *815:B1 *816:B1 7.92757e-06
6 *26:55 *816:B1 0.000107496
7 *49:36 *816:B1 0.000156024
8 *49:49 *816:B1 4.16614e-05
9 *189:14 *816:B1 0.000192917
*RES
1 *815:Y *816:B1 33.7938 
*END

*D_NET *303 0.000249313
*CONN
*I *817:A3 I *D sky130_fd_sc_hd__a31oi_1
*I *816:Y O *D sky130_fd_sc_hd__a31oi_1
*CAP
1 *817:A3 9.05821e-05
2 *816:Y 9.05821e-05
3 *817:A3 *431:24 1.56911e-05
4 *816:A1 *817:A3 4.22306e-05
5 *37:126 *817:A3 1.02267e-05
*RES
1 *816:Y *817:A3 20.9337 
*END

*D_NET *304 0.00645886
*CONN
*I *821:A2 I *D sky130_fd_sc_hd__o41ai_1
*I *817:Y O *D sky130_fd_sc_hd__a31oi_1
*CAP
1 *821:A2 0.0014715
2 *817:Y 0.0014715
3 *821:A2 *821:A3 0.000253206
4 *821:A2 *836:B1 2.95884e-05
5 *821:A2 *858:B1 0
6 *744:B *821:A2 0.00138117
7 *789:B *821:A2 3.22583e-05
8 *800:A1 *821:A2 1.23635e-05
9 *814:B *821:A2 0.000704103
10 *818:B *821:A2 6.08467e-05
11 *821:A1 *821:A2 0.000120272
12 *821:B1 *821:A2 3.31745e-05
13 *26:28 *821:A2 4.702e-05
14 *26:87 *821:A2 1.48597e-05
15 *38:269 *821:A2 0
16 *51:81 *821:A2 0.000492245
17 *59:344 *821:A2 8.14128e-07
18 *68:36 *821:A2 0.000253367
19 *83:91 *821:A2 2.29386e-05
20 *158:26 *821:A2 4.0971e-05
21 *204:52 *821:A2 1.66626e-05
*RES
1 *817:Y *821:A2 49.6441 
*END

*D_NET *305 0.000540231
*CONN
*I *821:A3 I *D sky130_fd_sc_hd__o41ai_1
*I *818:Y O *D sky130_fd_sc_hd__nor3_1
*CAP
1 *821:A3 0.000143512
2 *818:Y 0.000143512
3 *821:A2 *821:A3 0.000253206
*RES
1 *818:Y *821:A3 22.0188 
*END

*D_NET *306 0.000652081
*CONN
*I *820:A2 I *D sky130_fd_sc_hd__o21ai_0
*I *819:Y O *D sky130_fd_sc_hd__a21oi_1
*CAP
1 *820:A2 0.000156402
2 *819:Y 0.000156402
3 *793:B2 *820:A2 5.53934e-05
4 *819:B1 *820:A2 0.000161801
5 *210:26 *820:A2 0.000122083
*RES
1 *819:Y *820:A2 31.542 
*END

*D_NET *307 0.000360567
*CONN
*I *821:A4 I *D sky130_fd_sc_hd__o41ai_1
*I *820:Y O *D sky130_fd_sc_hd__o21ai_0
*CAP
1 *821:A4 7.21866e-05
2 *820:Y 7.21866e-05
3 *821:A4 *796:A 6.50586e-05
4 *59:323 *821:A4 7.37686e-05
5 *210:26 *821:A4 7.73661e-05
*RES
1 *820:Y *821:A4 29.6384 
*END

*D_NET *308 0.00122143
*CONN
*I *836:B1 I *D sky130_fd_sc_hd__o2bb2ai_1
*I *821:Y O *D sky130_fd_sc_hd__o41ai_1
*CAP
1 *836:B1 0.000444365
2 *821:Y 0.000444365
3 *821:A2 *836:B1 2.95884e-05
4 *821:B1 *836:B1 1.41976e-05
5 *836:A1_N *836:B1 1.32043e-05
6 *210:41 *836:B1 7.60183e-05
7 *290:22 *836:B1 0.00019969
*RES
1 *821:Y *836:B1 37.2341 
*END

*D_NET *309 0.000278301
*CONN
*I *823:A2 I *D sky130_fd_sc_hd__a21oi_1
*I *822:Y O *D sky130_fd_sc_hd__nand2_1
*CAP
1 *823:A2 5.07151e-05
2 *822:Y 5.07151e-05
3 *823:A2 *310:16 0.000111708
4 *822:B *823:A2 6.51628e-05
5 *823:B1 *823:A2 0
6 *49:112 *823:A2 0
*RES
1 *822:Y *823:A2 20.355 
*END

*D_NET *310 0.00846384
*CONN
*I *824:B1 I *D sky130_fd_sc_hd__a2111oi_0
*I *823:Y O *D sky130_fd_sc_hd__a21oi_1
*CAP
1 *824:B1 0.000794533
2 *823:Y 0.000730065
3 *310:16 0.0015246
4 *824:B1 *835:A1 1.65872e-05
5 *824:B1 *854:A2 1.88014e-05
6 *824:B1 *854:B1 0.000122657
7 *824:B1 *860:A1 0.000446985
8 *824:B1 *864:A1 9.75148e-06
9 *824:B1 *385:26 5.51483e-06
10 *824:B1 *385:40 2.20702e-05
11 *824:B1 *405:44 0.000210955
12 *310:16 *822:A 2.16355e-05
13 *310:16 *852:A1 0.000107131
14 *310:16 *854:A2 0.000409463
15 *310:16 *430:35 5.21758e-06
16 *310:16 *454:398 0.00048604
17 *310:16 *454:599 3.3238e-05
18 *525:A *310:16 8.08437e-05
19 *553:A1 *310:16 7.13573e-05
20 *750:A3 *824:B1 6.3657e-05
21 *823:A1 *310:16 1.67179e-05
22 *823:A2 *310:16 0.000111708
23 *823:B1 *310:16 4.29314e-06
24 *824:A1 *824:B1 0.000324746
25 *824:C1 *824:B1 0.000405499
26 *849:A2 *310:16 0.000327461
27 *850:A1 *310:16 1.88563e-05
28 *850:A2 *310:16 0.000167198
29 *854:A1 *824:B1 1.55025e-05
30 *854:A1 *310:16 1.37695e-05
31 *870:A *310:16 4.07382e-05
32 *49:112 *310:16 0.000756924
33 *56:624 *310:16 0.000293754
34 *57:205 *824:B1 0.000365305
35 *57:212 *824:B1 0.000420272
36 *101:34 *310:16 0
*RES
1 *823:Y *310:16 47.0358 
2 *310:16 *824:B1 36.063 
*END

*D_NET *311 0.00129845
*CONN
*I *835:A1 I *D sky130_fd_sc_hd__a22oi_1
*I *824:Y O *D sky130_fd_sc_hd__a2111oi_0
*CAP
1 *835:A1 0.000259377
2 *824:Y 0.000259377
3 *835:A1 *834:B1 0
4 *835:A1 *835:B1 0.000111458
5 *835:A1 *835:B2 2.352e-05
6 *835:A1 *443:23 0
7 *824:A1 *835:A1 2.20702e-05
8 *824:B1 *835:A1 1.65872e-05
9 *824:C1 *835:A1 6.50586e-05
10 *834:A1 *835:A1 0.000519481
11 *834:C1 *835:A1 2.15184e-05
*RES
1 *824:Y *835:A1 36.8455 
*END

*D_NET *312 0.000965984
*CONN
*I *827:A2 I *D sky130_fd_sc_hd__o21ai_0
*I *825:Y O *D sky130_fd_sc_hd__o22ai_1
*CAP
1 *827:A2 0.000211449
2 *825:Y 0.000211449
3 *827:A2 *454:571 1.07248e-05
4 *763:A2 *827:A2 1.83857e-05
5 *825:A1 *827:A2 1.03403e-05
6 *833:B1 *827:A2 0.00014702
7 *40:152 *827:A2 0.000101133
8 *56:559 *827:A2 0.000186334
9 *56:584 *827:A2 5.01835e-05
10 *218:84 *827:A2 1.89644e-05
*RES
1 *825:Y *827:A2 33.791 
*END

*D_NET *313 0.000290764
*CONN
*I *827:B1 I *D sky130_fd_sc_hd__o21ai_0
*I *826:Y O *D sky130_fd_sc_hd__o211ai_1
*CAP
1 *827:B1 8.05048e-05
2 *826:Y 8.05048e-05
3 *827:B1 *835:A2 1.61631e-05
4 *769:A3 *827:B1 4.57364e-05
5 *826:A2 *827:B1 6.78549e-05
*RES
1 *826:Y *827:B1 20.9096 
*END

*D_NET *314 0.00140866
*CONN
*I *835:A2 I *D sky130_fd_sc_hd__a22oi_1
*I *827:Y O *D sky130_fd_sc_hd__o21ai_0
*CAP
1 *835:A2 0.000368209
2 *827:Y 0.000368209
3 *835:A2 *828:B1 2.1032e-05
4 *835:A2 *831:A1 1.67329e-05
5 *835:A2 *831:A2 1.86418e-05
6 *835:A2 *834:B1 0
7 *769:A3 *835:A2 7.82454e-06
8 *824:A2 *835:A2 0
9 *827:B1 *835:A2 1.61631e-05
10 *833:B1 *835:A2 0.000345908
11 *204:115 *835:A2 0.000245941
*RES
1 *827:Y *835:A2 37.7272 
*END

*D_NET *315 0.000724417
*CONN
*I *831:A2 I *D sky130_fd_sc_hd__o21ai_1
*I *828:Y O *D sky130_fd_sc_hd__a21oi_1
*CAP
1 *831:A2 0.000150125
2 *828:Y 0.000150125
3 *831:A2 *828:A1 0.000267394
4 *831:A2 *828:B1 8.03393e-06
5 *831:A2 *834:B1 6.64392e-05
6 *833:B1 *831:A2 6.3657e-05
7 *835:A2 *831:A2 1.86418e-05
*RES
1 *828:Y *831:A2 32.2721 
*END

*D_NET *316 0.000111422
*CONN
*I *830:B2 I *D sky130_fd_sc_hd__a22oi_1
*I *829:Y O *D sky130_fd_sc_hd__o21ai_0
*CAP
1 *830:B2 1.59894e-05
2 *829:Y 1.59894e-05
3 *56:416 *830:B2 1.43848e-05
4 *233:37 *830:B2 6.50586e-05
*RES
1 *829:Y *830:B2 19.2217 
*END

*D_NET *317 0.00469059
*CONN
*I *831:B1 I *D sky130_fd_sc_hd__o21ai_1
*I *830:Y O *D sky130_fd_sc_hd__a22oi_1
*CAP
1 *831:B1 7.65732e-05
2 *830:Y 0.000854828
3 *317:10 0.000931401
4 *831:B1 *834:A2 3.57646e-05
5 *317:10 *826:C1 6.61829e-06
6 *317:10 *834:B1 0.00011103
7 *317:10 *443:23 0.00166809
8 *760:B *317:10 0
9 *807:A2 *317:10 0
10 *810:A2 *317:10 0.000476101
11 *830:A1 *317:10 6.20345e-05
12 *830:A2 *317:10 0.000117362
13 *56:416 *317:10 0.000260325
14 *204:115 *317:10 0
15 *218:54 *317:10 0
16 *218:84 *317:10 0
17 *256:14 *317:10 9.04668e-05
*RES
1 *830:Y *317:10 46.3448 
2 *317:10 *831:B1 15.5817 
*END

*D_NET *318 0.00117791
*CONN
*I *834:A2 I *D sky130_fd_sc_hd__a211o_1
*I *831:Y O *D sky130_fd_sc_hd__o21ai_1
*CAP
1 *834:A2 0.000428465
2 *831:Y 0.000428465
3 *834:A2 *834:B1 0.000186704
4 *834:A2 *443:23 7.14746e-05
5 *831:B1 *834:A2 3.57646e-05
6 *834:A1 *834:A2 2.20294e-05
7 *834:C1 *834:A2 5.00937e-06
*RES
1 *831:Y *834:A2 35.2327 
*END

*D_NET *319 0.00030582
*CONN
*I *833:A2 I *D sky130_fd_sc_hd__a211oi_1
*I *832:Y O *D sky130_fd_sc_hd__nand2_1
*CAP
1 *833:A2 4.63126e-05
2 *832:Y 4.63126e-05
3 *833:A2 *828:A1 3.74146e-05
4 *833:A2 *454:571 2.16355e-05
5 *204:109 *833:A2 0.000154145
*RES
1 *832:Y *833:A2 20.3309 
*END

*D_NET *320 0.000992577
*CONN
*I *834:B1 I *D sky130_fd_sc_hd__a211o_1
*I *833:Y O *D sky130_fd_sc_hd__a211oi_1
*CAP
1 *834:B1 0.000283083
2 *833:Y 0.000283083
3 *834:B1 *443:23 3.43484e-05
4 *831:A2 *834:B1 6.64392e-05
5 *834:A1 *834:B1 4.65954e-06
6 *834:A2 *834:B1 0.000186704
7 *834:C1 *834:B1 2.32299e-05
8 *835:A1 *834:B1 0
9 *835:A2 *834:B1 0
10 *317:10 *834:B1 0.00011103
*RES
1 *833:Y *834:B1 35.2324 
*END

*D_NET *321 0.000427604
*CONN
*I *835:B1 I *D sky130_fd_sc_hd__a22oi_1
*I *834:X O *D sky130_fd_sc_hd__a211o_1
*CAP
1 *835:B1 0.000130994
2 *834:X 0.000130994
3 *835:B1 *835:B2 4.61732e-05
4 *834:A1 *835:B1 7.98425e-06
5 *835:A1 *835:B1 0.000111458
*RES
1 *834:X *835:B1 30.6083 
*END

*D_NET *322 0.0058132
*CONN
*I *836:B2 I *D sky130_fd_sc_hd__o2bb2ai_1
*I *835:Y O *D sky130_fd_sc_hd__a22oi_1
*CAP
1 *836:B2 0.00218622
2 *835:Y 0.00218622
3 *836:B2 *393:55 1.79338e-05
4 *711:B *836:B2 0
5 *785:C1 *836:B2 0
6 *824:A2 *836:B2 1.16107e-05
7 *832:B *836:B2 0.000163915
8 *39:30 *836:B2 3.58954e-05
9 *44:165 *836:B2 2.36528e-05
10 *56:584 *836:B2 5.4923e-06
11 *59:323 *836:B2 2.33103e-06
12 *199:39 *836:B2 0.00037725
13 *210:26 *836:B2 3.29176e-06
14 *212:30 *836:B2 0.000319454
15 *218:84 *836:B2 0.00030119
16 *273:28 *836:B2 0
17 *290:22 *836:B2 0.000178743
*RES
1 *835:Y *836:B2 49.5152 
*END

*D_NET *323 0.00138028
*CONN
*I *842:A2 I *D sky130_fd_sc_hd__a22o_1
*I *837:Y O *D sky130_fd_sc_hd__o21ai_0
*CAP
1 *842:A2 0.000357798
2 *837:Y 0.000357798
3 *842:A2 *393:106 3.65259e-05
4 *842:A2 *397:67 0.000476909
5 *735:B1 *842:A2 0.000121252
6 *842:B2 *842:A2 2.99978e-05
*RES
1 *837:Y *842:A2 28.1195 
*END

*D_NET *324 0.000768474
*CONN
*I *841:A2_N I *D sky130_fd_sc_hd__o2bb2ai_1
*I *838:Y O *D sky130_fd_sc_hd__o21ai_0
*CAP
1 *841:A2_N 0.000216831
2 *838:Y 0.000216831
3 *841:A2_N *838:A2 6.23757e-05
4 *803:A2 *841:A2_N 6.06311e-05
5 *841:A1_N *841:A2_N 5.05688e-06
6 *38:180 *841:A2_N 8.6297e-06
7 *38:182 *841:A2_N 1.21831e-05
8 *41:30 *841:A2_N 3.89928e-05
9 *168:58 *841:A2_N 5.34415e-05
10 *267:49 *841:A2_N 9.35007e-05
*RES
1 *838:Y *841:A2_N 33.9206 
*END

*D_NET *325 0.000553013
*CONN
*I *841:B1 I *D sky130_fd_sc_hd__o2bb2ai_1
*I *839:Y O *D sky130_fd_sc_hd__o21ai_0
*CAP
1 *841:B1 7.9883e-05
2 *839:Y 7.9883e-05
3 *803:A2 *841:B1 0.000270835
4 *37:160 *841:B1 0.000104529
5 *56:314 *841:B1 1.7883e-05
*RES
1 *839:Y *841:B1 22.0188 
*END

*D_NET *326 0.0002164
*CONN
*I *841:B2 I *D sky130_fd_sc_hd__o2bb2ai_1
*I *840:Y O *D sky130_fd_sc_hd__nor3_1
*CAP
1 *841:B2 3.90275e-05
2 *840:Y 3.90275e-05
3 *841:B2 *385:101 7.08444e-05
4 *267:49 *841:B2 6.75009e-05
*RES
1 *840:Y *841:B2 28.915 
*END

*D_NET *327 0.00135686
*CONN
*I *842:B1 I *D sky130_fd_sc_hd__a22o_1
*I *841:Y O *D sky130_fd_sc_hd__o2bb2ai_1
*CAP
1 *842:B1 0.000372228
2 *841:Y 0.000372228
3 *842:B1 *574:A1 9.12416e-06
4 *842:B1 *385:101 0.000133884
5 *797:A1 *842:B1 1.00004e-05
6 *803:A2 *842:B1 2.54531e-05
7 *841:A1_N *842:B1 4.69495e-06
8 *70:63 *842:B1 3.22124e-05
9 *70:76 *842:B1 4.063e-05
10 *158:14 *842:B1 1.91246e-05
11 *168:101 *842:B1 0.000247617
12 *267:49 *842:B1 8.96596e-05
*RES
1 *841:Y *842:B1 37.5282 
*END

*D_NET *328 0.00304786
*CONN
*I *848:A2 I *D sky130_fd_sc_hd__a21oi_1
*I *842:X O *D sky130_fd_sc_hd__a22o_1
*CAP
1 *848:A2 0.000721125
2 *842:X 0.000721125
3 *848:A2 *848:B1 0.000168313
4 *848:A2 *861:A2 0.000421353
5 *848:A2 *869:A 9.95922e-06
6 *848:A2 *870:B 0.000441873
7 *848:A2 *454:419 1.4106e-05
8 *848:A2 *454:430 0.000321736
9 *711:B *848:A2 0.000117594
10 *724:A1 *848:A2 8.96342e-05
11 *724:C1 *848:A2 2.10465e-05
12 *40:186 *848:A2 0
*RES
1 *842:X *848:A2 46.3136 
*END

*D_NET *329 0.000680754
*CONN
*I *844:B1 I *D sky130_fd_sc_hd__a21oi_1
*I *843:Y O *D sky130_fd_sc_hd__xnor2_1
*CAP
1 *844:B1 0.000179272
2 *843:Y 0.000179272
3 *844:B1 *767:A 1.4091e-06
4 *844:B1 *843:A 2.41274e-06
5 *844:B1 *844:A1 2.58757e-05
6 *844:B1 *397:107 7.43799e-05
7 *844:B1 *429:98 0.000124338
8 *844:B1 *455:325 3.29488e-05
9 *844:A2 *844:B1 6.08467e-05
*RES
1 *843:Y *844:B1 31.6076 
*END

*D_NET *330 0.000521503
*CONN
*I *847:A2 I *D sky130_fd_sc_hd__o211ai_1
*I *844:Y O *D sky130_fd_sc_hd__a21oi_1
*CAP
1 *847:A2 6.67449e-05
2 *844:Y 6.67449e-05
3 *847:A2 *848:B1 1.17054e-05
4 *847:A2 *453:243 0.000162583
5 *844:A2 *847:A2 0.000213725
*RES
1 *844:Y *847:A2 21.4401 
*END

*D_NET *331 0.000486469
*CONN
*I *846:C I *D sky130_fd_sc_hd__nand3_1
*I *845:Y O *D sky130_fd_sc_hd__o21ai_0
*CAP
1 *846:C 0.000111579
2 *845:Y 0.000111579
3 *846:C *454:436 5.85383e-05
4 *844:A2 *846:C 0.000138334
5 *40:178 *846:C 6.64392e-05
*RES
1 *845:Y *846:C 30.8842 
*END

*D_NET *332 0.000342648
*CONN
*I *847:B1 I *D sky130_fd_sc_hd__o211ai_1
*I *846:Y O *D sky130_fd_sc_hd__nand3_1
*CAP
1 *847:B1 6.12022e-05
2 *846:Y 6.12022e-05
3 *844:A2 *847:B1 0.000110122
4 *847:C1 *847:B1 0.000110122
*RES
1 *846:Y *847:B1 29.7455 
*END

*D_NET *333 0.00114783
*CONN
*I *848:B1 I *D sky130_fd_sc_hd__a21oi_1
*I *847:Y O *D sky130_fd_sc_hd__o211ai_1
*CAP
1 *848:B1 0.000311376
2 *847:Y 0.000311376
3 *848:B1 *454:430 8.51503e-05
4 *844:A2 *848:B1 5.481e-05
5 *847:A2 *848:B1 1.17054e-05
6 *848:A2 *848:B1 0.000168313
7 *57:274 *848:B1 0.000205101
*RES
1 *847:Y *848:B1 26.4315 
*END

*D_NET *334 0.0035638
*CONN
*I *886:A1 I *D sky130_fd_sc_hd__o22ai_1
*I *848:Y O *D sky130_fd_sc_hd__a21oi_1
*CAP
1 *886:A1 0
2 *848:Y 0.000790034
3 *334:12 0.000790034
4 *334:12 *765:B 0.000136287
5 *334:12 *874:B2 0
6 *334:12 *357:18 0
7 *334:12 *371:26 4.23528e-05
8 *334:12 *385:14 1.77537e-06
9 *334:12 *454:419 1.61631e-05
10 *334:12 *454:430 0.000212123
11 *733:B *334:12 0.000142962
12 *741:B *334:12 7.13655e-06
13 *742:A *334:12 1.5714e-05
14 *750:A3 *334:12 5.39608e-05
15 *32:305 *334:12 0
16 *39:30 *334:12 1.18245e-05
17 *44:83 *334:12 4.68502e-05
18 *44:85 *334:12 0.000200523
19 *59:269 *334:12 0.000234508
20 *59:277 *334:12 1.6214e-05
21 *101:34 *334:12 0
22 *196:24 *334:12 1.5714e-05
23 *204:69 *334:12 8.45896e-06
24 *221:10 *334:12 4.26859e-05
25 *225:12 *334:12 0.000778475
26 *237:34 *334:12 0
*RES
1 *848:Y *334:12 43.6462 
2 *334:12 *886:A1 9.24915 
*END

*D_NET *335 0.000506236
*CONN
*I *851:A3 I *D sky130_fd_sc_hd__o31a_1
*I *849:Y O *D sky130_fd_sc_hd__a21oi_1
*CAP
1 *851:A3 0.000150388
2 *849:Y 0.000150388
3 *851:A3 *849:A1 1.5714e-05
4 *851:A3 *851:B1 0
5 *851:A3 *454:398 2.86395e-05
6 *851:A3 *455:424 4.65119e-05
7 *550:B1 *851:A3 0.000114594
*RES
1 *849:Y *851:A3 30.6083 
*END

*D_NET *336 0.00171703
*CONN
*I *851:B1 I *D sky130_fd_sc_hd__o31a_1
*I *850:Y O *D sky130_fd_sc_hd__o211ai_1
*CAP
1 *851:B1 0.000616898
2 *850:Y 0.000616898
3 *851:B1 *849:A1 2.56905e-05
4 *851:B1 *871:A2 2.1203e-06
5 *851:B1 *385:80 0
6 *851:B1 *430:47 1.83307e-05
7 *851:B1 *455:424 4.57692e-05
8 *739:A1 *851:B1 3.73224e-05
9 *739:B1 *851:B1 7.50722e-05
10 *851:A2 *851:B1 0
11 *851:A3 *851:B1 0
12 *870:A *851:B1 3.8319e-05
13 *40:85 *851:B1 7.50872e-05
14 *41:30 *851:B1 0
15 *44:70 *851:B1 0.000165521
16 *49:104 *851:B1 0
*RES
1 *850:Y *851:B1 41.4399 
*END

*D_NET *337 0.00165809
*CONN
*I *854:A2 I *D sky130_fd_sc_hd__o21ai_0
*I *851:X O *D sky130_fd_sc_hd__o31a_1
*CAP
1 *854:A2 0.000369172
2 *851:X 0.000369172
3 *854:A2 *553:A2 2.2979e-05
4 *854:A2 *853:B 2.89597e-05
5 *854:A2 *431:72 0
6 *854:A2 *432:8 3.89332e-06
7 *553:A1 *854:A2 4.49295e-05
8 *554:B2 *854:A2 6.08467e-05
9 *824:B1 *854:A2 1.88014e-05
10 *850:A2 *854:A2 0.000161997
11 *854:A1 *854:A2 6.3657e-05
12 *56:624 *854:A2 1.37925e-05
13 *59:227 *854:A2 6.08467e-05
14 *59:233 *854:A2 2.95757e-05
15 *310:16 *854:A2 0.000409463
*RES
1 *851:X *854:A2 39.192 
*END

*D_NET *338 0.000632451
*CONN
*I *853:C I *D sky130_fd_sc_hd__or3_1
*I *852:Y O *D sky130_fd_sc_hd__a21oi_1
*CAP
1 *853:C 0.00017892
2 *852:Y 0.00017892
3 *853:C *429:10 3.08214e-05
4 *853:A *853:C 0.000136293
5 *39:32 *853:C 0.000107496
*RES
1 *852:Y *853:C 31.4388 
*END

*D_NET *339 0.000827788
*CONN
*I *854:B1 I *D sky130_fd_sc_hd__o21ai_0
*I *853:X O *D sky130_fd_sc_hd__or3_1
*CAP
1 *854:B1 0.000134289
2 *853:X 0.000134289
3 *854:B1 *864:A1 7.046e-05
4 *854:B1 *385:40 0.000164815
5 *854:B1 *385:80 5.82465e-05
6 *854:B1 *429:25 0.000143032
7 *824:B1 *854:B1 0.000122657
*RES
1 *853:X *854:B1 33.6572 
*END

*D_NET *340 0.00122774
*CONN
*I *864:A1 I *D sky130_fd_sc_hd__o21ai_0
*I *854:Y O *D sky130_fd_sc_hd__o21ai_0
*CAP
1 *864:A1 0.000388631
2 *854:Y 0.000388631
3 *864:A1 *864:A2 5.04734e-05
4 *864:A1 *385:26 1.61631e-05
5 *864:A1 *385:40 0.000271058
6 *864:A1 *429:25 3.25751e-05
7 *824:B1 *864:A1 9.75148e-06
8 *854:B1 *864:A1 7.046e-05
*RES
1 *854:Y *864:A1 34.9058 
*END

*D_NET *341 0.00498629
*CONN
*I *858:A2 I *D sky130_fd_sc_hd__a21oi_1
*I *855:X O *D sky130_fd_sc_hd__or2_2
*CAP
1 *858:A2 0.00138481
2 *855:X 0.00138481
3 *858:A2 *640:A2 3.91685e-05
4 *858:A2 *371:26 8.07404e-05
5 *858:A2 *455:187 2.69685e-05
6 *712:A1 *858:A2 7.1397e-05
7 *861:B2 *858:A2 1.83897e-05
8 *40:200 *858:A2 3.88655e-06
9 *41:18 *858:A2 0.000447131
10 *70:99 *858:A2 1.43499e-05
11 *97:33 *858:A2 2.72989e-05
12 *138:32 *858:A2 0.00128511
13 *138:47 *858:A2 9.55484e-05
14 *158:26 *858:A2 3.13301e-05
15 *168:14 *858:A2 1.43499e-05
16 *168:85 *858:A2 6.09999e-05
*RES
1 *855:X *858:A2 41.707 
*END

*D_NET *342 0.000387388
*CONN
*I *857:A2 I *D sky130_fd_sc_hd__o22ai_1
*I *856:Y O *D sky130_fd_sc_hd__nand2b_1
*CAP
1 *857:A2 0.00015151
2 *856:Y 0.00015151
3 *218:20 *857:A2 8.43687e-05
*RES
1 *856:Y *857:A2 20.8855 
*END

*D_NET *343 0.00328442
*CONN
*I *858:B1 I *D sky130_fd_sc_hd__a21oi_1
*I *857:Y O *D sky130_fd_sc_hd__o22ai_1
*CAP
1 *858:B1 0.000773052
2 *857:Y 0.000773052
3 *858:B1 *858:A1 0.000111722
4 *858:B1 *455:298 2.0456e-06
5 *583:A1 *858:B1 0.000101381
6 *731:C *858:B1 1.66626e-05
7 *732:A2 *858:B1 0.000538117
8 *735:A2 *858:B1 0.000160772
9 *800:A1 *858:B1 8.89041e-06
10 *821:A2 *858:B1 0
11 *857:B1 *858:B1 7.4901e-05
12 *857:B2 *858:B1 3.54024e-05
13 *38:269 *858:B1 0.000492368
14 *168:101 *858:B1 0.000107496
15 *217:27 *858:B1 5.00168e-05
16 *258:8 *858:B1 3.85446e-05
*RES
1 *857:Y *858:B1 48.2646 
*END

*D_NET *344 0.00326341
*CONN
*I *861:A2 I *D sky130_fd_sc_hd__o221ai_1
*I *858:Y O *D sky130_fd_sc_hd__a21oi_1
*CAP
1 *861:A2 0.000700838
2 *858:Y 0.000700838
3 *861:A2 *708:C1 0.000256684
4 *861:A2 *385:101 0.000519562
5 *861:A2 *397:61 1.9101e-05
6 *861:A2 *454:419 1.5714e-05
7 *583:A1 *861:A2 6.50727e-05
8 *711:B *861:A2 6.00319e-05
9 *724:A1 *861:A2 7.08993e-05
10 *739:B1 *861:A2 6.35325e-05
11 *848:A2 *861:A2 0.000421353
12 *860:A2 *861:A2 0.000350685
13 *59:290 *861:A2 0
14 *59:307 *861:A2 0
15 *95:143 *861:A2 1.9101e-05
*RES
1 *858:Y *861:A2 49.5705 
*END

*D_NET *345 0.0005553
*CONN
*I *861:B1 I *D sky130_fd_sc_hd__o221ai_1
*I *859:Y O *D sky130_fd_sc_hd__nor2_1
*CAP
1 *861:B1 0.000153779
2 *859:Y 0.000153779
3 *861:B1 *861:C1 3.5534e-06
4 *861:B1 *864:A2 6.44185e-05
5 *861:B1 *385:80 4.83562e-06
6 *861:B1 *430:47 8.8569e-05
7 *719:A1 *861:B1 6.3657e-05
8 *860:A2 *861:B1 2.27085e-05
*RES
1 *859:Y *861:B1 30.8842 
*END

*D_NET *346 0.000459817
*CONN
*I *861:C1 I *D sky130_fd_sc_hd__o221ai_1
*I *860:X O *D sky130_fd_sc_hd__o211a_1
*CAP
1 *861:C1 0.000130291
2 *860:X 0.000130291
3 *861:C1 *864:A2 6.1061e-06
4 *861:C1 *385:80 0.00010813
5 *861:B1 *861:C1 3.5534e-06
6 *56:624 *861:C1 6.27782e-05
7 *57:205 *861:C1 1.86674e-05
*RES
1 *860:X *861:C1 30.4689 
*END

*D_NET *347 0.00220691
*CONN
*I *864:A2 I *D sky130_fd_sc_hd__o21ai_0
*I *861:Y O *D sky130_fd_sc_hd__o221ai_1
*CAP
1 *864:A2 0.000467992
2 *861:Y 0.000467992
3 *864:A2 *860:A1 0.000322506
4 *864:A2 *455:424 6.08467e-05
5 *860:A2 *864:A2 0.000167079
6 *861:B1 *864:A2 6.44185e-05
7 *861:C1 *864:A2 6.1061e-06
8 *864:A1 *864:A2 5.04734e-05
9 *32:39 *864:A2 9.25341e-05
10 *57:205 *864:A2 0.000480395
11 *59:432 *864:A2 2.65667e-05
*RES
1 *861:Y *864:A2 43.2346 
*END

*D_NET *348 0.000781229
*CONN
*I *863:A2 I *D sky130_fd_sc_hd__a21oi_1
*I *862:Y O *D sky130_fd_sc_hd__nand2b_1
*CAP
1 *863:A2 0.000204986
2 *862:Y 0.000204986
3 *863:A2 *380:16 0.000205687
4 *863:A2 *453:148 0.000105183
5 *863:A2 *453:152 1.07248e-05
6 *59:259 *863:A2 4.96637e-05
*RES
1 *862:Y *863:A2 32.1327 
*END

*D_NET *349 0.000132303
*CONN
*I *864:B1 I *D sky130_fd_sc_hd__o21ai_0
*I *863:Y O *D sky130_fd_sc_hd__a21oi_1
*CAP
1 *864:B1 3.95848e-05
2 *863:Y 3.95848e-05
3 *864:B1 *886:A2 2.65667e-05
4 *864:B1 *385:26 0
5 *902:A1 *864:B1 0
6 *59:432 *864:B1 2.65667e-05
*RES
1 *863:Y *864:B1 19.8004 
*END

*D_NET *350 0.00102954
*CONN
*I *886:A2 I *D sky130_fd_sc_hd__o22ai_1
*I *864:Y O *D sky130_fd_sc_hd__o21ai_0
*CAP
1 *886:A2 0.000222012
2 *864:Y 0.000222012
3 *886:A2 *886:B1 2.20702e-05
4 *886:A2 *357:18 0.000164829
5 *886:A2 *385:14 0.000107496
6 *886:A2 *385:26 8.15039e-05
7 *863:A1 *886:A2 0.000162583
8 *864:B1 *886:A2 2.65667e-05
9 *874:C1 *886:A2 1.64789e-05
10 *59:432 *886:A2 3.99086e-06
*RES
1 *864:Y *886:A2 25.7564 
*END

*D_NET *351 0.000541189
*CONN
*I *866:B I *D sky130_fd_sc_hd__xnor2_1
*I *865:Y O *D sky130_fd_sc_hd__nor2b_1
*CAP
1 *866:B 0.00015808
2 *865:Y 0.00015808
3 *866:B *455:14 9.28161e-05
4 *866:B *455:22 1.76193e-05
5 *642:A1 *866:B 0.000114594
*RES
1 *865:Y *866:B 23.1039 
*END

*D_NET *352 0.000270218
*CONN
*I *868:A2 I *D sky130_fd_sc_hd__o21ai_0
*I *866:Y O *D sky130_fd_sc_hd__xnor2_1
*CAP
1 *868:A2 5.50174e-05
2 *866:Y 5.50174e-05
3 *645:B *868:A2 3.44886e-05
4 *149:14 *868:A2 0.000125695
*RES
1 *866:Y *868:A2 29.7455 
*END

*D_NET *353 0.000179767
*CONN
*I *868:B1 I *D sky130_fd_sc_hd__o21ai_0
*I *867:Y O *D sky130_fd_sc_hd__o221ai_1
*CAP
1 *868:B1 4.90607e-05
2 *867:Y 4.90607e-05
3 *868:B1 *867:C1 6.50586e-05
4 *30:12 *868:B1 1.65872e-05
*RES
1 *867:Y *868:B1 19.7763 
*END

*D_NET *354 0.0126836
*CONN
*I *871:A2 I *D sky130_fd_sc_hd__o221ai_1
*I *868:Y O *D sky130_fd_sc_hd__o21ai_0
*CAP
1 *871:A2 0.00286043
2 *868:Y 0.000797335
3 *354:10 0.00365776
4 *871:A2 *615:A1 8.82902e-06
5 *871:A2 *625:A 0.000299381
6 *871:A2 *713:A_N 0.00105073
7 *871:A2 *870:B 1.00901e-05
8 *871:A2 *871:B1 0.000158357
9 *871:A2 *422:139 0.000133204
10 *871:A2 *434:26 4.76978e-05
11 *871:A2 *454:419 0.000592366
12 *871:A2 *455:439 0
13 *354:10 *867:C1 4.31703e-05
14 *354:10 *898:A0 0.000153753
15 *354:10 *898:S 7.00507e-05
16 *354:10 *435:22 0.0001691
17 *354:10 *455:14 0.000205702
18 *622:B1 *871:A2 0.000338007
19 *709:A2 *871:A2 0.000133672
20 *739:B1 *871:A2 0.000298399
21 *851:B1 *871:A2 2.1203e-06
22 *870:A *871:A2 5.97136e-05
23 *27:23 *871:A2 0
24 *32:98 *354:10 0
25 *35:20 *871:A2 4.86024e-05
26 *41:30 *871:A2 2.26455e-05
27 *56:62 *871:A2 1.94501e-05
28 *57:42 *354:10 0.00010717
29 *149:14 *354:10 0.00139582
*RES
1 *868:Y *354:10 46.689 
2 *354:10 *871:A2 36.7012 
*END

*D_NET *355 0.00119613
*CONN
*I *870:B I *D sky130_fd_sc_hd__xnor2_1
*I *869:Y O *D sky130_fd_sc_hd__nand2_1
*CAP
1 *870:B 0.00020266
2 *869:Y 0.00020266
3 *870:B *454:419 0.000157819
4 *848:A2 *870:B 0.000441873
5 *870:A *870:B 1.0759e-05
6 *871:A1 *870:B 0.000107496
7 *871:A2 *870:B 1.00901e-05
8 *871:C1 *870:B 6.27782e-05
*RES
1 *869:Y *870:B 26.311 
*END

*D_NET *356 0.000547749
*CONN
*I *871:B1 I *D sky130_fd_sc_hd__o221ai_1
*I *870:Y O *D sky130_fd_sc_hd__xnor2_1
*CAP
1 *871:B1 6.23096e-05
2 *870:Y 6.23096e-05
3 *871:B1 *454:419 0.000158357
4 *871:A2 *871:B1 0.000158357
5 *59:307 *871:B1 4.79289e-05
6 *59:317 *871:B1 7.09666e-06
7 *95:143 *871:B1 4.2266e-05
8 *95:149 *871:B1 9.12416e-06
*RES
1 *870:Y *871:B1 30.3324 
*END

*D_NET *357 0.00413355
*CONN
*I *874:B1 I *D sky130_fd_sc_hd__o221ai_1
*I *871:Y O *D sky130_fd_sc_hd__o221ai_1
*CAP
1 *874:B1 0
2 *871:Y 0.00100544
3 *357:18 0.00100544
4 *357:18 *719:B2 1.66771e-05
5 *357:18 *886:B1 1.09068e-05
6 *357:18 *371:26 0.000116204
7 *357:18 *385:14 5.05252e-05
8 *357:18 *453:152 1.96919e-05
9 *357:18 *453:210 3.60363e-05
10 *719:A1 *357:18 8.34211e-06
11 *874:C1 *357:18 3.64194e-05
12 *886:A2 *357:18 0.000164829
13 *915:D *357:18 0.000122098
14 *39:30 *357:18 7.444e-06
15 *59:269 *357:18 1.8415e-06
16 *59:277 *357:18 2.35849e-05
17 *59:290 *357:18 0.000479903
18 *59:307 *357:18 5.60364e-06
19 *95:143 *357:18 0.000128078
20 *101:8 *357:18 0.000161213
21 *101:34 *357:18 0.000299
22 *204:69 *357:18 0.000136747
23 *204:88 *357:18 0.000297529
24 *334:12 *357:18 0
*RES
1 *871:Y *357:18 48.033 
2 *357:18 *874:B1 9.24915 
*END

*D_NET *358 0.000442103
*CONN
*I *873:B1 I *D sky130_fd_sc_hd__o311a_1
*I *872:Y O *D sky130_fd_sc_hd__o221ai_1
*CAP
1 *873:B1 7.05904e-05
2 *872:Y 7.05904e-05
3 *873:B1 *735:A1 7.92757e-06
4 *873:B1 *872:C1 0.000105683
5 *730:B *873:B1 0
6 *56:397 *873:B1 0.000187312
*RES
1 *872:Y *873:B1 21.633 
*END

*D_NET *359 0.00611474
*CONN
*I *874:B2 I *D sky130_fd_sc_hd__o221ai_1
*I *873:X O *D sky130_fd_sc_hd__o311a_1
*CAP
1 *874:B2 0.00231775
2 *873:X 0.00231775
3 *874:B2 *371:26 0.000114591
4 *729:B *874:B2 0.0001743
5 *741:B *874:B2 0.00102719
6 *32:305 *874:B2 0
7 *212:30 *874:B2 0.00012399
8 *258:8 *874:B2 3.91685e-05
9 *334:12 *874:B2 0
*RES
1 *873:X *874:B2 41.912 
*END

*D_NET *360 0.000391815
*CONN
*I *886:B1 I *D sky130_fd_sc_hd__o22ai_1
*I *874:Y O *D sky130_fd_sc_hd__o221ai_1
*CAP
1 *886:B1 0.000101392
2 *874:Y 0.000101392
3 *886:B1 *385:14 2.65831e-05
4 *874:C1 *886:B1 1.55025e-05
5 *886:A2 *886:B1 2.20702e-05
6 *915:D *886:B1 0.000113968
7 *357:18 *886:B1 1.09068e-05
*RES
1 *874:Y *886:B1 21.4401 
*END

*D_NET *361 0.000324031
*CONN
*I *880:A1 I *D sky130_fd_sc_hd__o22ai_1
*I *875:Y O *D sky130_fd_sc_hd__nand2_1
*CAP
1 *880:A1 5.53597e-05
2 *875:Y 5.53597e-05
3 *880:A1 *875:A 9.35846e-05
4 *880:A1 *880:A2 0.000113109
5 *788:B *880:A1 6.61829e-06
*RES
1 *875:Y *880:A1 29.7455 
*END

*D_NET *362 0.000786511
*CONN
*I *877:B1 I *D sky130_fd_sc_hd__a31oi_1
*I *876:Y O *D sky130_fd_sc_hd__nor3_1
*CAP
1 *877:B1 0.000181401
2 *876:Y 0.000181401
3 *877:B1 *877:A1 3.81056e-05
4 *877:B1 *880:A2 6.92705e-05
5 *776:A3 *877:B1 2.08073e-05
6 *126:14 *877:B1 0.000169762
7 *263:20 *877:B1 0.000125763
*RES
1 *876:Y *877:B1 24.2613 
*END

*D_NET *363 0.00070974
*CONN
*I *880:A2 I *D sky130_fd_sc_hd__o22ai_1
*I *877:Y O *D sky130_fd_sc_hd__a31oi_1
*CAP
1 *880:A2 0.000191057
2 *877:Y 0.000191057
3 *880:A2 *454:149 4.36349e-05
4 *788:B *880:A2 0
5 *875:B *880:A2 6.27031e-05
6 *877:B1 *880:A2 6.92705e-05
7 *880:A1 *880:A2 0.000113109
8 *72:28 *880:A2 0
9 *126:14 *880:A2 3.89076e-05
*RES
1 *877:Y *880:A2 31.9934 
*END

*D_NET *364 0.000438987
*CONN
*I *879:B1 I *D sky130_fd_sc_hd__o21ai_0
*I *878:Y O *D sky130_fd_sc_hd__o21ai_1
*CAP
1 *879:B1 0.000124685
2 *878:Y 0.000124685
3 *879:B1 *640:A2 2.60879e-06
4 *879:B1 *876:B 0.00010063
5 *884:B *879:B1 6.08467e-05
6 *72:28 *879:B1 2.5531e-05
*RES
1 *878:Y *879:B1 30.4689 
*END

*D_NET *365 0.000481365
*CONN
*I *880:B1 I *D sky130_fd_sc_hd__o22ai_1
*I *879:Y O *D sky130_fd_sc_hd__o21ai_0
*CAP
1 *880:B1 5.16861e-05
2 *879:Y 5.16861e-05
3 *880:B1 *455:200 6.50586e-05
4 *875:B *880:B1 0.000268798
5 *274:31 *880:B1 4.4136e-05
*RES
1 *879:Y *880:B1 21.4401 
*END

*D_NET *366 0.00138126
*CONN
*I *885:A2 I *D sky130_fd_sc_hd__a2111oi_2
*I *880:Y O *D sky130_fd_sc_hd__o22ai_1
*CAP
1 *885:A2 0.000376592
2 *880:Y 0.000376592
3 *885:A2 *397:16 0
4 *885:A2 *454:149 2.14842e-06
5 *885:A2 *454:153 9.32809e-06
6 *875:B *885:A2 7.7639e-06
7 *878:B1 *885:A2 0.000113254
8 *884:C_N *885:A2 0.000211391
9 *37:377 *885:A2 1.65872e-05
10 *56:436 *885:A2 0
11 *72:28 *885:A2 2.79176e-05
12 *244:14 *885:A2 0.000226736
13 *274:31 *885:A2 1.2945e-05
*RES
1 *880:Y *885:A2 38.0376 
*END

*D_NET *367 0.000597116
*CONN
*I *882:B1 I *D sky130_fd_sc_hd__a221oi_1
*I *881:Y O *D sky130_fd_sc_hd__o21ai_0
*CAP
1 *882:B1 0.000152325
2 *881:Y 0.000152325
3 *681:C *882:B1 0.000160139
4 *696:A *882:B1 6.53502e-05
5 *881:B1 *882:B1 6.98337e-06
6 *37:345 *882:B1 5.29752e-05
7 *37:360 *882:B1 7.01935e-06
*RES
1 *881:Y *882:B1 23.1039 
*END

*D_NET *368 0.000902024
*CONN
*I *885:B1 I *D sky130_fd_sc_hd__a2111oi_2
*I *882:Y O *D sky130_fd_sc_hd__a221oi_1
*CAP
1 *885:B1 0.000301716
2 *882:Y 0.000301716
3 *878:B1 *885:B1 4.49519e-05
4 *885:D1 *885:B1 8.20145e-05
5 *30:328 *885:B1 0.000109421
6 *37:345 *885:B1 7.62098e-06
7 *37:360 *885:B1 4.76161e-06
8 *37:377 *885:B1 4.98215e-05
*RES
1 *882:Y *885:B1 26.3351 
*END

*D_NET *369 0.000238266
*CONN
*I *884:A I *D sky130_fd_sc_hd__nor3b_1
*I *883:Y O *D sky130_fd_sc_hd__nor3_1
*CAP
1 *884:A 7.55353e-05
2 *883:Y 7.55353e-05
3 *883:C *884:A 1.55025e-05
4 *244:14 *884:A 7.16929e-05
*RES
1 *883:Y *884:A 20.9096 
*END

*D_NET *370 0.000453467
*CONN
*I *885:C1 I *D sky130_fd_sc_hd__a2111oi_2
*I *884:Y O *D sky130_fd_sc_hd__nor3b_1
*CAP
1 *885:C1 0.000129721
2 *884:Y 0.000129721
3 *885:C1 *878:A2 4.13432e-05
4 *885:C1 *371:26 1.03594e-05
5 *885:C1 *455:220 5.02782e-05
6 *878:B1 *885:C1 9.20447e-05
*RES
1 *884:Y *885:C1 30.8842 
*END

*D_NET *371 0.00985641
*CONN
*I *886:B2 I *D sky130_fd_sc_hd__o22ai_1
*I *885:Y O *D sky130_fd_sc_hd__a2111oi_2
*CAP
1 *886:B2 0
2 *885:Y 0.00304387
3 *371:26 0.00304387
4 *371:26 *878:A2 0.000195112
5 *371:26 *397:61 0.00135574
6 *371:26 *454:218 0.000159671
7 *371:26 *455:220 8.75441e-06
8 *741:B *371:26 0.000344314
9 *858:A2 *371:26 8.07404e-05
10 *861:B2 *371:26 0
11 *874:B2 *371:26 0.000114591
12 *885:C1 *371:26 1.03594e-05
13 *30:328 *371:26 0.000146276
14 *32:39 *371:26 5.80734e-05
15 *59:269 *371:26 0.000177577
16 *138:32 *371:26 0.000948845
17 *168:14 *371:26 1.00592e-05
18 *334:12 *371:26 4.23528e-05
19 *357:18 *371:26 0.000116204
*RES
1 *885:Y *371:26 42.7647 
2 *371:26 *886:B2 9.24915 
*END

*D_NET *372 0.00107838
*CONN
*P x_in[4] I
*I *887:A I *D sky130_fd_sc_hd__clkdlybuf4s50_1
*CAP
1 x_in[4] 0.00046719
2 *887:A 0.00046719
3 *887:A *914:A 2.02035e-05
4 *887:A *374:14 6.03248e-05
5 *728:A *887:A 6.34729e-05
6 *890:A0 *887:A 0
7 *20:109 *887:A 0
8 *20:120 *887:A 0
*RES
1 x_in[4] *887:A 27.0777 
*END

*D_NET *373 0.000294269
*CONN
*I *889:B I *D sky130_fd_sc_hd__nor2_1
*I *888:Y O *D sky130_fd_sc_hd__mux2i_1
*CAP
1 *889:B 9.61602e-05
2 *888:Y 9.61602e-05
3 *889:B *888:A0 6.46815e-05
4 *889:A *889:B 1.88676e-05
5 *932:D *889:B 1.83992e-05
*RES
1 *888:Y *889:B 21.4642 
*END

*D_NET *374 0.00433804
*CONN
*I *891:B I *D sky130_fd_sc_hd__nor2_1
*I *890:Y O *D sky130_fd_sc_hd__mux2i_1
*CAP
1 *891:B 0
2 *890:Y 0.000130106
3 *374:14 0.00149911
4 *374:8 0.00162922
5 *374:8 *890:A1 4.81015e-05
6 *374:14 *605:A 0.00010584
7 *374:14 *896:A1 0.000101025
8 *374:14 *901:B 0.000170986
9 *374:14 *910:A 0
10 *887:A *374:14 6.03248e-05
11 *890:A0 *374:14 0
12 *891:A *374:14 0
13 *928:D *374:14 6.38636e-05
14 *931:CLK *374:14 7.71803e-05
15 *20:27 *374:14 0
16 *20:33 *374:14 0.000271278
17 *20:35 *374:14 0.000181007
*RES
1 *890:Y *374:8 16.691 
2 *374:8 *374:14 49.4139 
3 *374:14 *891:B 9.24915 
*END

*D_NET *375 0.000500797
*CONN
*I *893:B I *D sky130_fd_sc_hd__nor2_1
*I *892:Y O *D sky130_fd_sc_hd__mux2i_1
*CAP
1 *893:B 0.000150857
2 *892:Y 0.000150857
3 *893:B *892:A1 4.19199e-05
4 *893:B *435:10 2.71397e-05
5 *892:A0 *893:B 6.46815e-05
6 *20:120 *893:B 6.53431e-05
7 *32:221 *893:B 0
*RES
1 *892:Y *893:B 31.9934 
*END

*D_NET *376 0.000551526
*CONN
*I *895:B I *D sky130_fd_sc_hd__nor2_1
*I *894:Y O *D sky130_fd_sc_hd__mux2i_1
*CAP
1 *895:B 0.000134638
2 *894:Y 0.000134638
3 *895:B *894:A0 6.92705e-05
4 *890:A0 *895:B 2.97556e-05
5 *895:A *895:B 0.000118166
6 *929:D *895:B 6.50586e-05
*RES
1 *894:Y *895:B 22.5734 
*END

*D_NET *377 0.000453838
*CONN
*I *897:B I *D sky130_fd_sc_hd__nor2_1
*I *896:Y O *D sky130_fd_sc_hd__mux2i_1
*CAP
1 *897:B 7.84289e-05
2 *896:Y 7.84289e-05
3 *897:B *896:A0 6.27782e-05
4 *897:B *896:A1 0.000208627
5 *897:A *897:B 2.55749e-05
*RES
1 *896:Y *897:B 21.4642 
*END

*D_NET *378 0.000667995
*CONN
*I *899:B I *D sky130_fd_sc_hd__nor2_1
*I *898:Y O *D sky130_fd_sc_hd__mux2i_1
*CAP
1 *899:B 0.000210565
2 *898:Y 0.000210565
3 *899:B *898:A1 6.50727e-05
4 *899:B *901:B 0
5 *899:B *454:311 2.69064e-05
6 *891:A *899:B 5.22654e-06
7 *926:D *899:B 0
8 *32:98 *899:B 0.000149659
*RES
1 *898:Y *899:B 34.2062 
*END

*D_NET *379 0.00108971
*CONN
*I *901:B I *D sky130_fd_sc_hd__nor2_1
*I *900:Y O *D sky130_fd_sc_hd__mux2i_1
*CAP
1 *901:B 0.000321365
2 *900:Y 0.000321365
3 *901:B *900:A1 4.66889e-05
4 *901:B *454:311 0.000128168
5 *899:B *901:B 0
6 *926:D *901:B 0.000101133
7 *374:14 *901:B 0.000170986
*RES
1 *900:Y *901:B 38.6374 
*END

*D_NET *380 0.00478673
*CONN
*I *904:A1 I *D sky130_fd_sc_hd__a21oi_1
*I *902:Y O *D sky130_fd_sc_hd__o21bai_1
*CAP
1 *904:A1 0.000126969
2 *902:Y 0.000534178
3 *380:16 0.000661147
4 *904:A1 *628:A 0.000326294
5 *904:A1 *429:94 0.000243661
6 *904:A1 *444:19 8.36586e-06
7 *904:A1 *451:10 1.95129e-05
8 *380:16 *727:A 2.6874e-05
9 *380:16 *835:B2 0.000798067
10 *380:16 *862:A_N 6.46815e-05
11 *380:16 *862:B 3.12627e-05
12 *380:16 *385:14 0.000137162
13 *380:16 *385:40 9.43255e-05
14 *380:16 *385:130 0.000581399
15 *380:16 *429:25 9.43255e-05
16 *380:16 *461:59 0.000343589
17 *786:A2 *380:16 3.75221e-05
18 *863:A2 *380:16 0.000205687
19 *59:259 *380:16 0.000451702
*RES
1 *902:Y *380:16 46.9582 
2 *380:16 *904:A1 19.7337 
*END

*D_NET *381 0.000328795
*CONN
*I *904:A2 I *D sky130_fd_sc_hd__a21oi_1
*I *903:Y O *D sky130_fd_sc_hd__nand2b_1
*CAP
1 *904:A2 0.00013689
2 *903:Y 0.00013689
3 *904:A2 *903:A_N 4.03096e-05
4 *904:A2 *903:B 1.47046e-05
*RES
1 *903:Y *904:A2 22.0188 
*END

*D_NET *382 0.000883066
*CONN
*I *906:B I *D sky130_fd_sc_hd__nor2_1
*I *905:Y O *D sky130_fd_sc_hd__mux2i_1
*CAP
1 *906:B 0.000194774
2 *905:Y 0.000194774
3 *906:A *906:B 6.77603e-05
4 *933:D *906:B 0.000386524
5 *933:CLK *906:B 1.37189e-05
6 *59:20 *906:B 2.55138e-05
*RES
1 *905:Y *906:B 34.3753 
*END

*D_NET *385 0.0190587
*CONN
*I *783:A I *D sky130_fd_sc_hd__nor2_1
*I *824:D1 I *D sky130_fd_sc_hd__a2111oi_0
*I *610:A I *D sky130_fd_sc_hd__nand2_1
*I *794:A I *D sky130_fd_sc_hd__nand4_1
*I *795:A I *D sky130_fd_sc_hd__nand2_1
*I *708:B1 I *D sky130_fd_sc_hd__o2111ai_1
*I *554:C1 I *D sky130_fd_sc_hd__a221o_1
*I *494:A I *D sky130_fd_sc_hd__nand2_1
*I *478:Y O *D sky130_fd_sc_hd__inv_1
*CAP
1 *783:A 0
2 *824:D1 0.00015389
3 *610:A 0
4 *794:A 0.000112651
5 *795:A 1.66258e-05
6 *708:B1 0
7 *554:C1 0.00024042
8 *494:A 1.37002e-05
9 *478:Y 0
10 *385:130 0.000594561
11 *385:105 0.000540617
12 *385:101 0.00143986
13 *385:80 0.00166956
14 *385:40 0.000639304
15 *385:26 0.0013144
16 *385:14 0.000501326
17 *385:4 0.000653821
18 *554:C1 *562:A 0.000205241
19 *554:C1 *398:19 0.000195124
20 *554:C1 *398:32 0.000175086
21 *554:C1 *461:46 0.000211546
22 *824:D1 *874:A2 8.01987e-05
23 *824:D1 *453:227 8.36615e-05
24 *385:14 *453:210 0
25 *385:26 *453:152 5.96936e-05
26 *385:40 *530:A1 1.05106e-05
27 *385:40 *530:A3 0.00031161
28 *385:40 *405:44 0
29 *385:40 *427:10 0.000163982
30 *385:40 *429:25 8.61936e-05
31 *385:40 *461:46 0.000224292
32 *385:40 *461:59 3.53654e-05
33 *385:80 *397:134 2.77611e-05
34 *385:80 *429:25 4.4486e-06
35 *385:80 *430:47 0.000115606
36 *385:80 *430:53 0.000172446
37 *385:101 *574:A1 1.91246e-05
38 *385:101 *430:53 0.000338344
39 *385:105 *422:63 0.000407389
40 *385:105 *422:80 0.00019238
41 *385:130 *874:A2 0.000110294
42 *385:130 *444:19 0
43 *385:130 *453:227 1.44467e-05
44 *493:B1 *494:A 3.5063e-05
45 *493:B1 *554:C1 0.000171769
46 *493:B1 *385:40 5.87494e-05
47 *530:B1 *385:40 0.000205312
48 *562:B *554:C1 5.30345e-05
49 *698:A2 *385:101 9.13603e-05
50 *698:A2 *385:105 2.65667e-05
51 *708:D1 *385:80 6.08467e-05
52 *708:D1 *385:101 6.08467e-05
53 *711:B *385:101 6.4674e-06
54 *712:A1 *385:101 0.000158359
55 *735:B1 *385:101 3.8525e-05
56 *739:B1 *385:101 0.000179635
57 *782:B1 *385:105 7.6719e-06
58 *786:A2 *385:130 0
59 *794:B *794:A 7.60405e-05
60 *795:B *795:A 1.56384e-05
61 *795:B *385:105 0.000744622
62 *796:B *794:A 6.08467e-05
63 *796:C *794:A 9.08028e-05
64 *796:C *385:105 7.92757e-06
65 *797:A1 *385:101 1.23601e-05
66 *824:B1 *385:26 5.51483e-06
67 *824:B1 *385:40 2.20702e-05
68 *824:C1 *824:D1 0.000317693
69 *834:C1 *824:D1 0.000156367
70 *838:B1 *385:101 0.000106696
71 *841:B2 *385:101 7.08444e-05
72 *842:B1 *385:101 0.000133884
73 *851:B1 *385:80 0
74 *854:B1 *385:40 0.000164815
75 *854:B1 *385:80 5.82465e-05
76 *860:A2 *385:101 2.22198e-05
77 *861:A2 *385:101 0.000519562
78 *861:B1 *385:80 4.83562e-06
79 *861:C1 *385:80 0.00010813
80 *864:A1 *385:26 1.61631e-05
81 *864:A1 *385:40 0.000271058
82 *864:B1 *385:26 0
83 *886:A2 *385:14 0.000107496
84 *886:A2 *385:26 8.15039e-05
85 *886:B1 *385:14 2.65831e-05
86 *915:D *385:14 2.94714e-05
87 *915:D *385:26 5.04829e-06
88 *32:39 *385:26 9.2346e-06
89 *32:305 *824:D1 4.72583e-05
90 *39:30 *385:80 0.000162189
91 *40:194 *385:101 0
92 *41:30 *385:80 0.000226037
93 *56:314 *385:101 4.23622e-05
94 *57:132 *554:C1 3.39793e-05
95 *57:205 *385:26 0.0002646
96 *57:205 *385:80 0.000407262
97 *57:212 *824:D1 6.50586e-05
98 *59:248 *385:40 2.46797e-05
99 *59:259 *385:26 5.92342e-05
100 *59:259 *385:40 0.000309329
101 *59:265 *385:26 0.000136533
102 *95:124 *385:80 6.50586e-05
103 *95:124 *385:101 4.66492e-05
104 *168:58 *385:101 3.29488e-05
105 *168:85 *385:101 0.000265137
106 *168:101 *385:101 8.52691e-06
107 *212:30 *385:101 0.000196528
108 *267:32 *385:101 3.07299e-05
109 *267:49 *385:101 4.81549e-05
110 *269:12 *385:105 0.000120864
111 *273:28 *385:105 6.50727e-05
112 *334:12 *385:14 1.77537e-06
113 *357:18 *385:14 5.05252e-05
114 *380:16 *385:14 0.000137162
115 *380:16 *385:40 9.43255e-05
116 *380:16 *385:130 0.000581399
*RES
1 *478:Y *385:4 9.24915 
2 *385:4 *385:14 14.0805 
3 *385:14 *385:26 18.1248 
4 *385:26 *385:40 27.711 
5 *385:40 *494:A 9.82786 
6 *385:40 *554:C1 28.8606 
7 *385:26 *385:80 29.8678 
8 *385:80 *708:B1 9.24915 
9 *385:80 *385:101 41.3314 
10 *385:101 *385:105 14.6126 
11 *385:105 *795:A 9.82786 
12 *385:105 *794:A 12.7456 
13 *385:14 *610:A 9.24915 
14 *385:4 *385:130 13.294 
15 *385:130 *824:D1 21.2932 
16 *385:130 *783:A 13.7491 
*END

*D_NET *393 0.022639
*CONN
*I *842:A1 I *D sky130_fd_sc_hd__a22o_1
*I *574:A1 I *D sky130_fd_sc_hd__a221oi_1
*I *521:A I *D sky130_fd_sc_hd__nor2_1
*I *828:B1 I *D sky130_fd_sc_hd__a21oi_1
*I *872:A1 I *D sky130_fd_sc_hd__o221ai_1
*I *735:A1 I *D sky130_fd_sc_hd__a21oi_1
*I *491:A I *D sky130_fd_sc_hd__nor2_1
*I *486:Y O *D sky130_fd_sc_hd__nor2_1
*CAP
1 *842:A1 0
2 *574:A1 0.00197697
3 *521:A 7.0922e-05
4 *828:B1 0.000317726
5 *872:A1 3.21032e-05
6 *735:A1 0.00105362
7 *491:A 0
8 *486:Y 0.000745686
9 *393:106 0.00215538
10 *393:55 0.0016492
11 *393:47 0.00186623
12 *393:37 0.00142306
13 *393:22 0.00129119
14 *521:A *521:B 2.22342e-05
15 *521:A *429:25 0.000116986
16 *735:A1 *872:C1 0.000309159
17 *828:B1 *828:A1 0.000225943
18 *828:B1 *832:A 3.13805e-06
19 *828:B1 *454:571 6.08467e-05
20 *872:A1 *872:C1 0
21 *393:22 *491:B 4.47179e-05
22 *393:22 *555:A2 7.7893e-06
23 *393:22 *555:B1_N 0.000254262
24 *393:22 *765:B 7.18683e-06
25 *393:22 *398:6 1.23937e-05
26 *393:22 *405:23 1.82249e-05
27 *393:22 *425:12 6.39378e-05
28 *393:37 *522:A 0.000306898
29 *393:37 *526:A 2.83829e-05
30 *393:37 *765:B 4.39856e-05
31 *393:37 *429:25 0.000268954
32 *393:47 *717:A 0.000189558
33 *393:47 *397:134 2.55665e-05
34 *393:47 *429:25 2.69795e-05
35 *393:47 *455:389 0.000609947
36 *393:55 *429:98 0
37 *393:55 *453:243 1.15094e-05
38 *393:106 *397:91 6.76778e-05
39 *539:A1 *393:22 0.000185963
40 *544:A2 *393:22 6.08467e-05
41 *607:C *574:A1 4.32816e-05
42 *614:A2 *574:A1 7.86825e-06
43 *706:B2 *574:A1 7.43852e-05
44 *709:A2 *574:A1 0
45 *730:B *735:A1 1.58551e-05
46 *730:B *872:A1 9.61271e-06
47 *730:B *393:55 1.1718e-05
48 *735:B1 *393:106 6.2854e-05
49 *736:B1 *393:106 0.000107496
50 *738:A1 *735:A1 1.50854e-05
51 *738:A1 *393:106 1.56419e-05
52 *738:A2 *735:A1 0.000163428
53 *738:A2 *393:106 1.92172e-05
54 *738:B1 *735:A1 2.57847e-05
55 *739:A1 *574:A1 1.38728e-05
56 *760:B *393:55 5.49916e-05
57 *797:A1 *574:A1 0
58 *797:A2 *574:A1 0
59 *816:A3 *574:A1 2.35701e-05
60 *824:A2 *393:47 0.000207591
61 *825:A1 *393:55 0.000394771
62 *825:B1 *393:55 5.67595e-05
63 *831:A2 *828:B1 8.03393e-06
64 *832:B *828:B1 3.54295e-05
65 *832:B *393:55 0.000165436
66 *833:B1 *828:B1 0.000157107
67 *833:C1 *828:B1 0.000165521
68 *835:A2 *828:B1 2.1032e-05
69 *836:B2 *393:55 1.79338e-05
70 *842:A2 *393:106 3.65259e-05
71 *842:B1 *574:A1 9.12416e-06
72 *842:B2 *393:106 0.00036741
73 *852:A2 *828:B1 4.66492e-05
74 *852:A2 *393:47 0.00200445
75 *853:A *393:47 0.000185112
76 *872:B2 *735:A1 2.16355e-05
77 *873:B1 *735:A1 7.92757e-06
78 *39:30 *393:47 2.86829e-05
79 *39:32 *393:47 6.08467e-05
80 *44:18 *574:A1 4.00225e-05
81 *48:157 *574:A1 0.000464617
82 *51:154 *393:22 1.88563e-05
83 *56:397 *735:A1 0.000115049
84 *56:550 *393:55 2.02231e-05
85 *56:559 *393:55 5.2504e-06
86 *56:624 *393:47 8.70363e-05
87 *59:32 *574:A1 2.27135e-05
88 *59:317 *393:55 0.000144717
89 *59:323 *393:55 0.000316355
90 *70:99 *574:A1 1.29079e-05
91 *101:34 *393:47 0.000109421
92 *138:47 *393:106 0.000368867
93 *168:101 *574:A1 3.57291e-06
94 *196:10 *393:55 0.000299536
95 *196:24 *393:55 3.88213e-05
96 *204:109 *828:B1 1.82787e-05
97 *212:30 *574:A1 6.25838e-06
98 *218:84 *828:B1 0.000107496
99 *218:84 *393:55 2.86829e-05
100 *233:43 *574:A1 2.26707e-05
101 *273:28 *393:55 0.000150654
102 *385:101 *574:A1 1.91246e-05
*RES
1 *486:Y *393:22 32.4459 
2 *393:22 *491:A 9.24915 
3 *393:22 *393:37 14.8687 
4 *393:37 *393:47 34.1424 
5 *393:47 *393:55 32.7333 
6 *393:55 *735:A1 22.7284 
7 *393:55 *872:A1 10.2378 
8 *393:47 *828:B1 27.9314 
9 *393:37 *521:A 15.9964 
10 *735:A1 *393:106 17.7852 
11 *393:106 *574:A1 29.6183 
12 *393:106 *842:A1 9.24915 
*END

*D_NET *397 0.0358187
*CONN
*I *723:A1 I *D sky130_fd_sc_hd__o22ai_1
*I *772:A1 I *D sky130_fd_sc_hd__a21o_1
*I *872:A2 I *D sky130_fd_sc_hd__o221ai_1
*I *831:A1 I *D sky130_fd_sc_hd__o21ai_1
*I *491:B I *D sky130_fd_sc_hd__nor2_1
*I *519:B I *D sky130_fd_sc_hd__nand2_1
*I *718:B I *D sky130_fd_sc_hd__nand3_1
*I *837:A2 I *D sky130_fd_sc_hd__o21ai_0
*I *543:B1 I *D sky130_fd_sc_hd__a21oi_1
*I *640:A2 I *D sky130_fd_sc_hd__o22ai_1
*I *490:Y O *D sky130_fd_sc_hd__nand2_2
*CAP
1 *723:A1 0.000516287
2 *772:A1 4.37906e-05
3 *872:A2 0
4 *831:A1 0.000510981
5 *491:B 4.92142e-05
6 *519:B 0.000227722
7 *718:B 4.33129e-05
8 *837:A2 0
9 *543:B1 0.000640421
10 *640:A2 0.00147098
11 *490:Y 0
12 *397:134 0.00189068
13 *397:120 0.00229739
14 *397:107 0.00100676
15 *397:91 0.00195439
16 *397:67 0.00114395
17 *397:61 0.00321748
18 *397:20 0.00322803
19 *397:16 0.0010303
20 *397:4 0.00129609
21 *491:B *555:A2 5.04829e-06
22 *491:B *398:6 4.0752e-05
23 *519:B *520:B 3.95077e-05
24 *519:B *555:A2 3.82228e-05
25 *519:B *555:B1_N 2.58616e-05
26 *519:B *405:23 1.19165e-05
27 *519:B *422:152 0.000143431
28 *519:B *422:197 0.000283542
29 *519:B *425:12 3.65558e-05
30 *543:B1 *558:A2 1.63255e-05
31 *543:B1 *607:A 2.16355e-05
32 *543:B1 *445:10 0
33 *640:A2 *876:B 5.16456e-05
34 *640:A2 *454:191 9.54447e-06
35 *640:A2 *454:212 1.41291e-05
36 *640:A2 *455:187 7.72718e-05
37 *640:A2 *455:220 0.000112488
38 *723:A1 *679:A 0.00015361
39 *723:A1 *710:A 0.000175174
40 *397:16 *755:B1 6.50586e-05
41 *397:61 *454:218 1.24546e-05
42 *397:61 *455:220 7.28994e-06
43 *397:61 *455:224 0.000153427
44 *397:107 *843:A 5.49916e-05
45 *397:107 *429:98 9.83313e-05
46 *397:107 *453:243 2.76764e-05
47 *397:107 *453:253 0.000182935
48 *397:107 *454:469 9.44796e-05
49 *397:107 *454:531 8.75317e-05
50 *397:107 *455:298 0.00013316
51 *397:107 *455:325 0.000119407
52 *397:120 *717:A 7.26606e-05
53 *397:120 *429:98 6.07928e-05
54 *397:120 *453:243 1.83586e-05
55 *397:134 *765:B 0.000784485
56 *397:134 *422:197 0.000485483
57 *397:134 *453:227 6.55124e-05
58 *539:B1 *519:B 0.000135984
59 *543:A2 *543:B1 0
60 *551:A2 *491:B 5.39635e-06
61 *688:A *640:A2 7.65917e-05
62 *696:B *640:A2 2.96616e-06
63 *711:B *397:61 0.000145576
64 *718:C *397:107 3.00174e-06
65 *718:C *397:120 3.22065e-05
66 *719:C1 *397:107 4.04926e-05
67 *723:B2 *723:A1 0.000127981
68 *736:B1 *397:91 0.000111722
69 *738:A1 *397:91 0.000129885
70 *738:A2 *397:91 8.88984e-06
71 *742:A *397:134 0.000161262
72 *742:B *397:134 4.23858e-05
73 *747:B *640:A2 8.00364e-05
74 *750:B1 *397:134 3.93948e-05
75 *756:A1 *397:16 0.000370815
76 *756:A2 *397:16 1.19721e-05
77 *756:A3 *397:16 7.92757e-06
78 *758:A1 *397:61 4.07645e-05
79 *762:B1 *397:107 0.00016805
80 *762:B1 *397:120 0.000107233
81 *771:A *397:20 0.000122034
82 *771:B *772:A1 2.57986e-05
83 *771:B *397:20 0.000129082
84 *776:B2 *640:A2 0.000221478
85 *777:B1 *640:A2 0.000244775
86 *777:B2 *640:A2 2.16888e-05
87 *778:A2 *397:20 6.3657e-05
88 *778:A2 *397:61 0.000104234
89 *786:A2 *831:A1 6.27782e-05
90 *786:A2 *397:134 6.27718e-05
91 *786:B1 *397:134 9.01382e-05
92 *787:B_N *640:A2 0.000278797
93 *835:A2 *831:A1 1.67329e-05
94 *842:A2 *397:67 0.000476909
95 *842:B2 *397:67 0.000321615
96 *842:B2 *397:91 0.000207266
97 *843:B *397:107 0.00016962
98 *844:A2 *397:107 1.751e-05
99 *844:B1 *397:107 7.43799e-05
100 *847:C1 *397:107 0.000106778
101 *849:A2 *543:B1 0.000226955
102 *850:A1 *543:B1 2.24632e-05
103 *858:A2 *640:A2 3.91685e-05
104 *861:A2 *397:61 1.9101e-05
105 *875:B *640:A2 0.000217937
106 *878:B1 *640:A2 0
107 *879:A2 *640:A2 9.54657e-05
108 *879:B1 *640:A2 2.60879e-06
109 *883:B *397:16 0.000260263
110 *883:C *397:16 2.99778e-05
111 *884:C_N *397:16 0
112 *885:A2 *397:16 0
113 *885:D1 *640:A2 0.000157911
114 *917:D *831:A1 3.44254e-06
115 *26:140 *397:134 7.27651e-06
116 *26:146 *397:134 1.99238e-06
117 *34:40 *543:B1 8.15345e-05
118 *34:55 *543:B1 4.47179e-05
119 *35:20 *543:B1 0.000257357
120 *37:377 *397:16 9.37126e-05
121 *37:388 *397:16 2.20277e-05
122 *38:303 *397:107 7.14746e-05
123 *40:200 *640:A2 1.7945e-05
124 *44:151 *397:107 9.87056e-05
125 *44:229 *723:A1 5.42643e-05
126 *44:231 *723:A1 2.42859e-05
127 *51:154 *519:B 3.00174e-06
128 *56:397 *397:91 0.000508624
129 *56:422 *723:A1 0
130 *56:436 *397:16 5.37799e-06
131 *56:501 *723:A1 0.000184116
132 *56:503 *723:A1 0.000159848
133 *56:511 *723:A1 2.07325e-05
134 *57:119 *491:B 1.38112e-06
135 *57:132 *491:B 4.75721e-06
136 *59:323 *397:107 0.00040266
137 *59:358 *640:A2 3.20407e-05
138 *59:358 *397:61 0.00016194
139 *62:115 *397:67 0.000249385
140 *70:99 *397:61 1.42709e-05
141 *95:89 *543:B1 0
142 *97:16 *723:A1 1.43848e-05
143 *97:16 *397:16 4.41269e-05
144 *101:34 *397:134 9.29295e-05
145 *126:69 *723:A1 0.000205517
146 *129:16 *640:A2 0.000159945
147 *209:27 *397:61 0.000206642
148 *210:14 *723:A1 2.16355e-05
149 *210:26 *723:A1 2.16355e-05
150 *212:30 *397:61 2.62423e-05
151 *222:10 *397:16 1.39717e-06
152 *226:24 *397:91 6.48653e-05
153 *237:34 *397:134 7.16754e-05
154 *244:14 *397:16 0.000706417
155 *249:34 *397:107 4.40272e-05
156 *371:26 *397:61 0.00135574
157 *385:80 *397:134 2.77611e-05
158 *393:22 *491:B 4.47179e-05
159 *393:47 *397:134 2.55665e-05
160 *393:106 *397:91 6.76778e-05
*RES
1 *490:Y *397:4 9.24915 
2 *397:4 *397:16 30.6278 
3 *397:16 *397:20 10.2148 
4 *397:20 *640:A2 46.081 
5 *397:20 *397:61 19.8091 
6 *397:61 *397:67 12.8282 
7 *397:67 *543:B1 31.5187 
8 *397:67 *837:A2 9.24915 
9 *397:61 *397:91 18.4707 
10 *397:91 *397:107 39.2807 
11 *397:107 *718:B 14.4819 
12 *397:107 *397:120 9.65401 
13 *397:120 *397:134 31.6926 
14 *397:134 *519:B 20.3538 
15 *397:134 *491:B 18.7745 
16 *397:120 *831:A1 18.9185 
17 *397:91 *872:A2 9.24915 
18 *397:16 *772:A1 10.5513 
19 *397:4 *723:A1 36.0354 
*END

*D_NET *398 0.0033234
*CONN
*I *501:C I *D sky130_fd_sc_hd__nand3_1
*I *493:A2 I *D sky130_fd_sc_hd__o21ai_0
*I *551:A1 I *D sky130_fd_sc_hd__o21ai_0
*I *555:A2 I *D sky130_fd_sc_hd__a21boi_0
*I *491:Y O *D sky130_fd_sc_hd__nor2_1
*CAP
1 *501:C 0.000108246
2 *493:A2 0
3 *551:A1 0
4 *555:A2 0.000323249
5 *491:Y 0.000114031
6 *398:32 0.0003041
7 *398:19 0.000334836
8 *398:6 0.000576262
9 *501:C *501:B 2.78496e-05
10 *501:C *599:A 0.000310505
11 *501:C *461:46 2.30636e-05
12 *555:A2 *425:12 8.10488e-06
13 *398:32 *494:B 0.000107496
14 *398:32 *627:A 0
15 *398:32 *461:46 1.34424e-05
16 *491:B *555:A2 5.04829e-06
17 *491:B *398:6 4.0752e-05
18 *493:B1 *501:C 0
19 *493:B1 *398:32 0.000107496
20 *501:A *501:C 0.000160942
21 *519:B *555:A2 3.82228e-05
22 *551:A2 *398:19 0.000298687
23 *551:A2 *398:32 1.07248e-05
24 *554:C1 *398:19 0.000195124
25 *554:C1 *398:32 0.000175086
26 *57:132 *398:19 1.99536e-05
27 *393:22 *555:A2 7.7893e-06
28 *393:22 *398:6 1.23937e-05
*RES
1 *491:Y *398:6 11.0817 
2 *398:6 *555:A2 13.8789 
3 *398:6 *398:19 10.0693 
4 *398:19 *551:A1 13.7491 
5 *398:19 *398:32 10.3802 
6 *398:32 *493:A2 9.24915 
7 *398:32 *501:C 14.4576 
*END

*D_NET *400 0.000345233
*CONN
*I *494:B I *D sky130_fd_sc_hd__nand2_1
*I *493:Y O *D sky130_fd_sc_hd__o21ai_0
*CAP
1 *494:B 9.09232e-05
2 *493:Y 9.09232e-05
3 *493:B1 *494:B 5.58904e-05
4 *398:32 *494:B 0.000107496
*RES
1 *493:Y *494:B 20.9096 
*END

*D_NET *401 0.00301808
*CONN
*I *532:A2 I *D sky130_fd_sc_hd__a311oi_1
*I *502:B I *D sky130_fd_sc_hd__nand4_1
*I *494:Y O *D sky130_fd_sc_hd__nand2_1
*CAP
1 *532:A2 0.000217112
2 *502:B 0.000272994
3 *494:Y 0.000254992
4 *401:12 0.000745098
5 *502:B *533:B 0.000128531
6 *502:B *627:A 6.27718e-05
7 *401:12 *530:A3 5.23577e-05
8 *401:12 *533:B 3.87022e-06
9 *401:12 *627:A 0.000241269
10 exp_out[3] *502:B 0.000100205
11 exp_out[3] *532:A2 0.000113082
12 *493:B1 *401:12 0.000109421
13 *563:A1 *502:B 0.000308814
14 *32:64 *502:B 6.85241e-05
15 *32:64 *532:A2 0.000125263
16 *32:72 *502:B 0.00021377
*RES
1 *494:Y *401:12 24.6812 
2 *401:12 *502:B 18.3157 
3 *401:12 *532:A2 15.5186 
*END

*D_NET *405 0.00757647
*CONN
*I *860:A1 I *D sky130_fd_sc_hd__o211a_1
*I *521:B I *D sky130_fd_sc_hd__nor2_1
*I *499:C I *D sky130_fd_sc_hd__nand3_1
*I *704:A2 I *D sky130_fd_sc_hd__o22a_1
*I *498:Y O *D sky130_fd_sc_hd__nand3_2
*CAP
1 *860:A1 0.000482743
2 *521:B 2.86126e-05
3 *499:C 0
4 *704:A2 0.000277848
5 *498:Y 5.0318e-05
6 *405:44 0.00164843
7 *405:23 0.00148358
8 *405:8 0.000674668
9 *704:A2 *486:A 0.000277603
10 *704:A2 *455:447 1.5714e-05
11 *860:A1 *453:152 0
12 *405:23 *501:B 0
13 *405:23 *520:B 0
14 *405:23 *555:A1 1.14979e-05
15 *405:23 *461:46 5.66868e-06
16 *405:44 *502:C 6.3657e-05
17 *405:44 *528:A2 2.39581e-05
18 *405:44 *461:36 6.61347e-05
19 *498:B *704:A2 4.69725e-06
20 *498:B *405:8 2.16355e-05
21 *499:B *405:23 9.45864e-05
22 *519:B *405:23 1.19165e-05
23 *521:A *521:B 2.22342e-05
24 *528:A1 *405:44 0.000197935
25 *528:B1 *405:44 0.000113002
26 *539:A1 *704:A2 2.77564e-05
27 *539:A1 *405:23 1.00004e-05
28 *561:A2 *405:23 0.000119197
29 *603:A1 *704:A2 0.000110306
30 *824:B1 *860:A1 0.000446985
31 *824:B1 *405:44 0.000210955
32 *860:A2 *860:A1 9.12416e-06
33 *864:A2 *860:A1 0.000322506
34 *902:B1_N *405:44 2.97286e-05
35 *32:39 *860:A1 6.20492e-05
36 *51:154 *704:A2 0.000343716
37 *51:154 *405:23 0.000104719
38 *56:624 *405:44 1.64983e-05
39 *57:140 *405:44 0.000142309
40 *59:196 *405:23 1.59773e-05
41 *59:233 *405:44 9.98029e-06
42 *385:40 *405:44 0
43 *393:22 *405:23 1.82249e-05
*RES
1 *498:Y *405:8 14.4725 
2 *405:8 *704:A2 21.8422 
3 *405:8 *405:23 14.2218 
4 *405:23 *499:C 9.24915 
5 *405:23 *405:44 31.3687 
6 *405:44 *521:B 19.2506 
7 *405:44 *860:A1 29.3939 
*END

*D_NET *406 0.000897048
*CONN
*I *502:C I *D sky130_fd_sc_hd__nand4_1
*I *499:Y O *D sky130_fd_sc_hd__nand3_1
*CAP
1 *502:C 0.000341543
2 *499:Y 0.000341543
3 *502:C *502:D 0.000138334
4 *502:C *461:36 1.19721e-05
5 *502:C *461:46 0
6 *405:44 *502:C 6.3657e-05
*RES
1 *499:Y *502:C 34.7608 
*END

*D_NET *407 0.0121907
*CONN
*I *501:B I *D sky130_fd_sc_hd__nand3_1
*I *588:B1 I *D sky130_fd_sc_hd__a31oi_1
*I *693:B I *D sky130_fd_sc_hd__or4_1
*I *624:A I *D sky130_fd_sc_hd__nand3_1
*I *500:Y O *D sky130_fd_sc_hd__inv_1
*CAP
1 *501:B 0.000753823
2 *588:B1 4.54647e-05
3 *693:B 0.000642965
4 *624:A 4.93528e-05
5 *500:Y 0
6 *407:23 0.00152166
7 *407:10 0.00164706
8 *407:4 0.00151831
9 *501:B *561:C1 0.000196638
10 *501:B *564:B 9.98296e-05
11 *501:B *599:A 5.26502e-05
12 *501:B *461:10 0.000171999
13 *407:23 *615:A1 1.91246e-05
14 *407:23 *457:105 7.93318e-06
15 *501:C *501:B 2.78496e-05
16 *561:B2 *501:B 2.68489e-05
17 *588:A3 *588:B1 2.16355e-05
18 *589:B *693:B 8.82627e-05
19 *594:B1 *693:B 0.000133124
20 *594:B1 *407:23 0.000109859
21 *594:C2 *407:23 0.000406982
22 *597:B1 *407:23 0.000390164
23 *615:A3 *407:23 3.17924e-05
24 *616:A1 *407:23 0
25 *619:A1 *407:10 4.16299e-05
26 *623:B1 *624:A 2.58757e-05
27 *624:B *624:A 6.27782e-05
28 *642:B2 *693:B 0.000158357
29 *30:41 *588:B1 0.000164815
30 *33:27 *693:B 0.000340742
31 *50:26 *501:B 5.67735e-05
32 *57:90 *407:10 0.000519284
33 *59:20 *407:10 3.23874e-05
34 *59:166 *407:10 4.71102e-05
35 *59:177 *501:B 3.46021e-05
36 *59:177 *407:10 9.82911e-06
37 *59:196 *501:B 0
38 *64:10 *693:B 0.000138235
39 *64:10 *407:23 5.41377e-05
40 *64:46 *407:23 0.00103977
41 *64:59 *407:23 0.000285211
42 *79:10 *407:23 0
43 *80:10 *693:B 3.10304e-06
44 *81:14 *407:23 1.55462e-05
45 *83:53 *588:B1 2.71504e-05
46 *88:12 *407:10 0.000123915
47 *88:12 *407:23 0.000187439
48 *101:34 *407:10 3.19657e-05
49 *101:42 *407:10 0.000705624
50 *101:42 *407:23 0.000121062
51 *405:23 *501:B 0
*RES
1 *500:Y *407:4 9.24915 
2 *407:4 *407:10 25.3335 
3 *407:10 *624:A 15.2053 
4 *407:10 *407:23 29.6539 
5 *407:23 *693:B 25.4541 
6 *407:23 *588:B1 15.5817 
7 *407:4 *501:B 36.2886 
*END

*D_NET *408 0.000605257
*CONN
*I *502:D I *D sky130_fd_sc_hd__nand4_1
*I *501:Y O *D sky130_fd_sc_hd__nand3_1
*CAP
1 *502:D 0.000177346
2 *501:Y 0.000177346
3 *502:D *599:A 0.000112231
4 *502:C *502:D 0.000138334
*RES
1 *501:Y *502:D 31.4388 
*END

*D_NET *409 0.000736792
*CONN
*I *506:A1 I *D sky130_fd_sc_hd__a21oi_1
*I *502:Y O *D sky130_fd_sc_hd__nand4_1
*CAP
1 *506:A1 0.000231563
2 *502:Y 0.000231563
3 *506:A1 *923:CLK 0.000213641
4 *506:A1 *429:35 1.88014e-05
5 exp_out[8] *506:A1 2.48716e-05
6 *921:D *506:A1 1.6352e-05
*RES
1 *502:Y *506:A1 31.8568 
*END

*D_NET *410 0.000861286
*CONN
*I *506:A2 I *D sky130_fd_sc_hd__a21oi_1
*I *503:Y O *D sky130_fd_sc_hd__nand2b_1
*CAP
1 *506:A2 0.000300837
2 *503:Y 0.000300837
3 *506:A2 *503:B 2.65667e-05
4 *506:A2 *576:A 0
5 *506:A2 *923:CLK 6.55651e-05
6 exp_out[8] *506:A2 0.000167481
*RES
1 *503:Y *506:A2 34.7959 
*END

*D_NET *417 0.0104771
*CONN
*I *594:A1 I *D sky130_fd_sc_hd__a222oi_1
*I *569:A2 I *D sky130_fd_sc_hd__o21ai_0
*I *518:A2 I *D sky130_fd_sc_hd__o211ai_1
*I *618:A I *D sky130_fd_sc_hd__nand2_1
*I *702:B1 I *D sky130_fd_sc_hd__o21ai_1
*I *631:A1 I *D sky130_fd_sc_hd__a21oi_1
*I *656:A I *D sky130_fd_sc_hd__nand2_1
*I *511:X O *D sky130_fd_sc_hd__and2_0
*CAP
1 *594:A1 0.000336465
2 *569:A2 0.000333121
3 *518:A2 0.000179286
4 *618:A 9.0093e-05
5 *702:B1 0
6 *631:A1 0
7 *656:A 0.000356
8 *511:X 0
9 *417:59 0.000622259
10 *417:51 0.00127491
11 *417:36 0.000799898
12 *417:23 0.000388024
13 *417:6 0.000575949
14 *417:4 0.000379381
15 *518:A2 *454:345 5.19897e-05
16 *518:A2 *454:355 0.000415971
17 *569:A2 *894:A0 1.09551e-05
18 *569:A2 *454:334 1.65872e-05
19 *569:A2 *454:345 2.83665e-05
20 *569:A2 *457:24 3.28807e-05
21 *569:A2 *457:37 0.000194689
22 *569:A2 *457:59 0.000123971
23 *594:A1 *674:A1 0
24 *618:A *457:70 9.75356e-05
25 *618:A *457:72 6.92647e-05
26 *656:A *454:34 0.000265216
27 *656:A *454:49 0.000118166
28 *417:23 *457:228 5.1493e-06
29 *417:36 *620:B_N 2.65831e-05
30 *417:51 *620:B_N 2.41483e-05
31 *417:59 *454:345 1.65872e-05
32 *417:59 *457:59 7.60278e-05
33 *417:59 *457:70 0.000567738
34 *570:B1 *569:A2 6.36477e-05
35 *594:B1 *594:A1 1.89922e-06
36 *594:C1 *594:A1 5.73392e-05
37 *594:C2 *594:A1 6.56438e-05
38 *600:A2 *569:A2 0.000111722
39 *603:A2 *569:A2 0.000164829
40 *615:A2 *417:51 7.60235e-05
41 *616:A1 *417:36 3.33495e-05
42 *616:A1 *417:51 0.000561194
43 *618:B *618:A 1.66923e-05
44 *622:A1 *518:A2 0.000112703
45 *623:A3 *417:51 7.03047e-05
46 *626:A2 *417:51 3.17869e-05
47 *633:A *417:23 0.000130521
48 *633:A *417:36 0.000237793
49 *645:B *656:A 4.09515e-05
50 *702:A2 *417:23 0.000131476
51 *702:A2 *417:36 0.000340905
52 *705:A2 *417:51 2.99929e-05
53 *823:A1 *618:A 9.5201e-06
54 *867:A2 *594:A1 2.05972e-05
55 *38:88 *594:A1 1.41976e-05
56 *38:88 *656:A 2.15348e-05
57 *38:88 *417:6 1.41689e-05
58 *38:88 *417:23 0.000159338
59 *56:86 *656:A 1.79542e-05
60 *81:14 *594:A1 3.99302e-06
61 *88:12 *569:A2 1.90218e-05
62 *88:12 *417:51 1.6373e-05
63 *89:14 *569:A2 1.09738e-05
64 *89:16 *569:A2 1.25165e-05
65 *89:16 *417:51 5.63621e-05
66 *95:124 *518:A2 0.000154145
67 *98:12 *618:A 0.000154344
68 *110:12 *417:36 1.2693e-05
69 *110:12 *417:51 0
70 *146:20 *656:A 2.3339e-05
*RES
1 *511:X *417:4 9.24915 
2 *417:4 *417:6 0.723396 
3 *417:6 *656:A 25.5173 
4 *417:6 *417:23 10.0693 
5 *417:23 *631:A1 13.7491 
6 *417:23 *417:36 12.4537 
7 *417:36 *702:B1 9.24915 
8 *417:36 *417:51 21.6625 
9 *417:51 *417:59 13.1808 
10 *417:59 *618:A 21.5806 
11 *417:59 *518:A2 15.5186 
12 *417:51 *569:A2 23.5385 
13 *417:4 *594:A1 16.887 
*END

*D_NET *419 0.020267
*CONN
*I *719:B2 I *D sky130_fd_sc_hd__o221ai_1
*I *518:B1 I *D sky130_fd_sc_hd__o211ai_1
*I *838:A2 I *D sky130_fd_sc_hd__o21ai_0
*I *876:B I *D sky130_fd_sc_hd__nor3_1
*I *757:B1 I *D sky130_fd_sc_hd__a21oi_1
*I *691:A2 I *D sky130_fd_sc_hd__a21oi_1
*I *513:X O *D sky130_fd_sc_hd__and2_0
*CAP
1 *719:B2 0.000495726
2 *518:B1 0.000586132
3 *838:A2 0.000172795
4 *876:B 0.00115383
5 *757:B1 0
6 *691:A2 0.000278168
7 *513:X 0.000598469
8 *419:83 0.00211023
9 *419:62 0.00184062
10 *419:43 0.00256475
11 *419:28 0.00109176
12 *518:B1 *454:355 0.000353454
13 *518:B1 *454:398 4.90167e-06
14 *518:B1 *454:419 2.23363e-05
15 *691:A2 *513:A 1.89462e-05
16 *691:A2 *455:90 0.000303777
17 *719:B2 *454:419 3.36233e-05
18 *876:B *454:149 0
19 *876:B *455:200 6.22557e-05
20 *419:28 *455:94 0.000109765
21 *419:28 *455:113 0.000170602
22 *419:43 *422:44 0
23 *419:43 *454:218 2.56038e-06
24 *513:B *419:28 5.04829e-06
25 *518:A1 *518:B1 0
26 *640:A2 *876:B 5.16456e-05
27 *682:A *419:28 5.02079e-05
28 *691:B1 *691:A2 1.79807e-05
29 *692:B2 *419:28 7.68538e-06
30 *694:B *419:28 9.42945e-05
31 *694:B *419:43 1.91246e-05
32 *699:A *419:43 0.00018777
33 *719:A1 *719:B2 1.66771e-05
34 *719:B1 *719:B2 2.16355e-05
35 *719:C1 *719:B2 6.08467e-05
36 *739:A1 *518:B1 0.000113351
37 *739:A1 *419:83 0.000999985
38 *739:A2 *518:B1 8.83916e-05
39 *740:B1 *719:B2 0.000305636
40 *744:B *838:A2 7.14325e-06
41 *798:A2 *838:A2 9.61147e-05
42 *799:B1 *876:B 3.6241e-05
43 *841:A2_N *838:A2 6.23757e-05
44 *861:B2 *419:83 0.000470991
45 *875:B *876:B 3.76933e-05
46 *879:B1 *876:B 0.00010063
47 *28:60 *419:28 0.000130225
48 *30:318 *419:43 0.00112377
49 *37:18 *419:28 0.000194573
50 *37:44 *419:28 6.93171e-05
51 *37:52 *419:28 1.07549e-05
52 *37:52 *419:43 5.06165e-06
53 *38:180 *838:A2 3.12828e-05
54 *40:35 *518:B1 0.000348738
55 *40:60 *518:B1 0.000152963
56 *40:225 *876:B 0.000337506
57 *41:12 *876:B 8.41266e-06
58 *41:30 *838:A2 2.33463e-05
59 *56:177 *419:28 1.29948e-05
60 *56:314 *838:A2 0.000107025
61 *59:317 *719:B2 3.64803e-06
62 *62:73 *419:43 0
63 *70:48 *876:B 0.000614751
64 *70:48 *419:62 0.000746788
65 *70:48 *419:83 0.000138158
66 *72:28 *876:B 2.81627e-06
67 *72:34 *876:B 4.96202e-06
68 *95:27 *419:28 3.23076e-06
69 *95:124 *518:B1 0.000216883
70 *95:143 *719:B2 0.000270139
71 *97:33 *876:B 0.000746977
72 *107:18 *838:A2 4.6189e-06
73 *131:20 *419:28 1.23822e-05
74 *138:20 *876:B 5.39134e-05
75 *158:26 *419:83 4.29059e-05
76 *236:20 *691:A2 6.03174e-06
77 *237:34 *518:B1 0
78 *237:34 *719:B2 0
79 *357:18 *719:B2 1.66771e-05
*RES
1 *513:X *691:A2 32.4114 
2 *513:X *419:28 23.5032 
3 *419:28 *757:B1 13.7491 
4 *419:28 *419:43 6.20091 
5 *419:43 *876:B 25.8903 
6 *419:43 *419:62 1.76499 
7 *419:62 *838:A2 20.4316 
8 *419:62 *419:83 3.85618 
9 *419:83 *518:B1 30.4672 
10 *419:83 *719:B2 19.3789 
*END

*D_NET *422 0.0328595
*CONN
*I *662:A1_N I *D sky130_fd_sc_hd__a2bb2oi_1
*I *746:B1 I *D sky130_fd_sc_hd__o221ai_1
*I *553:A2 I *D sky130_fd_sc_hd__a31oi_1
*I *853:B I *D sky130_fd_sc_hd__or3_1
*I *555:A1 I *D sky130_fd_sc_hd__a21boi_0
*I *608:B1 I *D sky130_fd_sc_hd__a21oi_1
*I *602:A1 I *D sky130_fd_sc_hd__o21ai_0
*I *518:C1 I *D sky130_fd_sc_hd__o211ai_1
*I *782:A1 I *D sky130_fd_sc_hd__a221o_1
*I *819:A2 I *D sky130_fd_sc_hd__a21oi_1
*I *813:C1 I *D sky130_fd_sc_hd__a311oi_1
*I *801:A1 I *D sky130_fd_sc_hd__o21ai_0
*I *698:A1 I *D sky130_fd_sc_hd__o21ai_0
*I *652:A1 I *D sky130_fd_sc_hd__o21ai_0
*I *647:A1 I *D sky130_fd_sc_hd__o21ai_0
*I *516:Y O *D sky130_fd_sc_hd__inv_1
*CAP
1 *662:A1_N 0.000462164
2 *746:B1 0.000200628
3 *553:A2 3.69867e-05
4 *853:B 0.000335468
5 *555:A1 1.99013e-05
6 *608:B1 0
7 *602:A1 0.0003579
8 *518:C1 0
9 *782:A1 0
10 *819:A2 0.000314958
11 *813:C1 8.58085e-05
12 *801:A1 9.57647e-05
13 *698:A1 4.07907e-05
14 *652:A1 0
15 *647:A1 0.000108107
16 *516:Y 0
17 *422:197 0.000701031
18 *422:158 0.00113363
19 *422:152 0.000874894
20 *422:150 0.000872504
21 *422:139 0.00127232
22 *422:125 0.00140583
23 *422:90 0.00100011
24 *422:80 0.000782415
25 *422:63 0.000958686
26 *422:48 0.00091052
27 *422:44 0.00139892
28 *422:38 0.00202143
29 *422:14 0.000372167
30 *422:4 0.00101183
31 *553:A2 *432:8 5.30622e-05
32 *555:A1 *520:B 1.86242e-05
33 *602:A1 *524:B 0.000133883
34 *801:A1 *878:A2 3.64081e-05
35 *853:B *765:B 0.00050731
36 *853:B *431:72 2.19936e-05
37 *853:B *432:8 1.91246e-05
38 *422:38 *613:C_N 0
39 *422:38 *457:121 0
40 *422:90 *715:B 0.000251592
41 *422:90 *455:224 1.03338e-05
42 *422:90 *455:241 5.7369e-06
43 *422:125 *445:10 0.000231
44 *422:139 *627:A 4.34058e-05
45 *422:139 *822:A 7.99851e-05
46 *422:139 *431:12 1.29597e-05
47 *422:139 *431:14 6.38982e-06
48 *422:139 *434:26 1.93467e-05
49 *422:139 *445:10 3.86898e-05
50 *422:150 *520:A 0.000703479
51 *422:150 *520:B 9.95035e-05
52 *422:150 *434:26 0.000220995
53 *516:A *422:14 6.61766e-05
54 *516:A *422:38 0.00014472
55 *519:B *422:152 0.000143431
56 *519:B *422:197 0.000283542
57 *539:A1 *422:152 2.26886e-06
58 *539:A1 *422:158 1.73296e-05
59 *539:B1 *422:150 5.45772e-05
60 *541:A *422:38 0.000114659
61 *554:A2 *853:B 5.60291e-06
62 *561:A2 *555:A1 1.91246e-05
63 *582:B *662:A1_N 3.5534e-06
64 *583:A1 *746:B1 1.34424e-05
65 *601:B *602:A1 0.000117123
66 *602:A2 *602:A1 1.65872e-05
67 *602:B1 *602:A1 2.08274e-05
68 *603:B1 *602:A1 3.99086e-06
69 *608:A1 *602:A1 9.0951e-05
70 *608:A1 *422:158 1.86178e-05
71 *609:A *602:A1 0.000107496
72 *614:A2 *422:38 9.02049e-05
73 *619:A1 *422:158 2.00207e-05
74 *632:B *746:B1 2.16355e-05
75 *647:A2 *647:A1 7.58595e-05
76 *652:B1 *422:14 0.000224381
77 *652:B1 *422:38 0
78 *653:A1 *647:A1 2.65831e-05
79 *653:A1 *422:14 0.000269345
80 *653:A2 *647:A1 2.64881e-05
81 *653:B1 *647:A1 6.50727e-05
82 *653:B1 *422:14 9.97706e-05
83 *659:A1 *647:A1 1.79196e-05
84 *659:B1 *422:38 0.000463595
85 *662:B1 *662:A1_N 0.00012957
86 *664:B1 *662:A1_N 2.41568e-05
87 *664:B2 *662:A1_N 0.000230382
88 *668:B1_N *746:B1 5.04829e-06
89 *668:B1_N *422:139 0.000224538
90 *675:A2 *662:A1_N 5.11466e-05
91 *698:A2 *422:63 5.14029e-05
92 *705:A1 *422:125 1.3813e-05
93 *705:A1 *422:139 0.000163967
94 *735:A2 *801:A1 4.42742e-06
95 *735:A2 *422:80 6.32155e-05
96 *735:A2 *422:90 0.00014295
97 *736:A2 *422:139 8.69584e-05
98 *746:A2 *746:B1 8.14875e-05
99 *746:B2 *746:B1 3.41459e-05
100 *749:C1 *662:A1_N 0.000236913
101 *749:D1 *422:125 6.57768e-05
102 *782:A2 *422:80 9.12416e-06
103 *782:A2 *422:90 0.000138396
104 *789:B *422:90 6.90101e-05
105 *816:A3 *422:125 0.000394641
106 *819:A1 *422:90 0.000884648
107 *819:B1 *819:A2 1.93033e-05
108 *821:A1 *813:C1 1.03403e-05
109 *822:B *422:139 7.74231e-05
110 *822:B *422:150 8.91097e-05
111 *854:A2 *553:A2 2.2979e-05
112 *854:A2 *853:B 2.89597e-05
113 *870:A *422:139 0.000437169
114 *871:A2 *422:139 0.000133204
115 *26:24 *801:A1 4.15574e-05
116 *26:28 *422:48 0.00081134
117 *26:55 *422:125 0.000324343
118 *27:23 *422:139 0
119 *28:20 *422:38 5.99155e-05
120 *30:54 *422:38 2.21072e-05
121 *30:56 *422:38 4.05915e-05
122 *30:60 *422:38 0.000367236
123 *30:64 *422:38 0.000162951
124 *30:79 *422:14 0
125 *30:318 *422:44 0
126 *30:318 *422:48 0
127 *33:27 *662:A1_N 0.000165773
128 *33:27 *422:38 0.000295569
129 *35:20 *422:139 0.00019898
130 *35:20 *422:150 1.38872e-05
131 *37:179 *422:80 2.35832e-05
132 *38:23 *422:38 9.38853e-06
133 *38:64 *662:A1_N 1.47773e-05
134 *38:146 *662:A1_N 8.17829e-06
135 *40:16 *602:A1 0.00015661
136 *40:16 *422:158 1.91246e-05
137 *44:50 *422:139 0
138 *44:50 *422:150 3.4796e-05
139 *44:322 *422:150 4.43331e-05
140 *48:67 *662:A1_N 1.3134e-05
141 *48:93 *422:44 0
142 *48:108 *422:63 6.23875e-05
143 *48:119 *422:63 3.82228e-05
144 *48:157 *422:139 3.77568e-05
145 *56:40 *602:A1 0.000304881
146 *56:729 *602:A1 6.00916e-05
147 *56:737 *602:A1 0.000132095
148 *57:90 *602:A1 6.63489e-05
149 *59:24 *422:158 7.8894e-05
150 *59:34 *662:A1_N 1.21985e-05
151 *59:344 *422:90 3.35621e-05
152 *68:30 *813:C1 0.000136323
153 *68:30 *422:90 8.5841e-05
154 *72:48 *662:A1_N 1.45434e-05
155 *81:48 *422:44 9.20451e-05
156 *86:10 *422:158 0.000101608
157 *101:34 *422:158 3.61334e-05
158 *103:10 *422:38 2.25013e-05
159 *107:18 *698:A1 1.2977e-05
160 *107:18 *422:63 1.32841e-05
161 *126:69 *813:C1 2.58616e-05
162 *126:86 *813:C1 0.000139936
163 *126:86 *422:90 7.86987e-05
164 *148:12 *662:A1_N 0.000280085
165 *148:12 *422:38 0.000171923
166 *158:26 *422:44 0.000126363
167 *158:26 *422:48 0.000902305
168 *189:14 *422:125 8.17829e-06
169 *204:8 *819:A2 1.83795e-06
170 *385:105 *422:63 0.000407389
171 *385:105 *422:80 0.00019238
172 *397:134 *422:197 0.000485483
173 *405:23 *555:A1 1.14979e-05
174 *419:43 *422:44 0
*RES
1 *516:Y *422:4 9.24915 
2 *422:4 *422:14 9.70556 
3 *422:14 *647:A1 22.0503 
4 *422:14 *652:A1 9.24915 
5 *422:4 *422:38 29.2728 
6 *422:38 *422:44 5.22617 
7 *422:44 *422:48 4.60427 
8 *422:48 *698:A1 14.543 
9 *422:48 *422:63 15.4455 
10 *422:63 *801:A1 20.4964 
11 *422:63 *422:80 8.30395 
12 *422:80 *422:90 12.6588 
13 *422:90 *813:C1 17.135 
14 *422:90 *819:A2 18.6441 
15 *422:80 *782:A1 13.7491 
16 *422:44 *422:125 15.7897 
17 *422:125 *422:139 26.0793 
18 *422:139 *518:C1 13.7491 
19 *422:139 *422:150 18.2812 
20 *422:150 *422:152 0.279355 
21 *422:152 *422:158 9.92766 
22 *422:158 *602:A1 27.0509 
23 *422:158 *608:B1 13.7491 
24 *422:152 *555:A1 17.9118 
25 *422:150 *422:197 4.41304 
26 *422:197 *853:B 22.0823 
27 *422:197 *553:A2 14.9583 
28 *422:125 *746:B1 18.3789 
29 *422:38 *662:A1_N 31.7496 
*END

*D_NET *424 0.00218622
*CONN
*I *520:A I *D sky130_fd_sc_hd__nand2_1
*I *518:Y O *D sky130_fd_sc_hd__o211ai_1
*CAP
1 *520:A 0.000407842
2 *518:Y 0.000407842
3 *520:A *520:B 4.13393e-05
4 *35:20 *520:A 0.00013135
5 *57:110 *520:A 0.000168334
6 *57:119 *520:A 0.00017842
7 *57:132 *520:A 0.000147614
8 *422:150 *520:A 0.000703479
*RES
1 *518:Y *520:A 43.0336 
*END

*D_NET *425 0.00124387
*CONN
*I *520:B I *D sky130_fd_sc_hd__nand2_1
*I *555:B1_N I *D sky130_fd_sc_hd__a21boi_0
*I *519:Y O *D sky130_fd_sc_hd__nand2_1
*CAP
1 *520:B 0.000131718
2 *555:B1_N 6.34966e-05
3 *519:Y 6.07114e-05
4 *425:12 0.000255926
5 *499:B *520:B 1.44611e-05
6 *519:B *520:B 3.95077e-05
7 *519:B *555:B1_N 2.58616e-05
8 *519:B *425:12 3.65558e-05
9 *520:A *520:B 4.13393e-05
10 *555:A1 *520:B 1.86242e-05
11 *555:A2 *425:12 8.10488e-06
12 *561:A2 *520:B 1.65679e-05
13 *51:154 *520:B 3.87022e-06
14 *51:154 *555:B1_N 0.000109421
15 *393:22 *555:B1_N 0.000254262
16 *393:22 *425:12 6.39378e-05
17 *405:23 *520:B 0
18 *422:150 *520:B 9.95035e-05
*RES
1 *519:Y *425:12 11.4676 
2 *425:12 *555:B1_N 12.191 
3 *425:12 *520:B 22.1574 
*END

*D_NET *426 0.00278956
*CONN
*I *530:A3 I *D sky130_fd_sc_hd__a31oi_1
*I *520:Y O *D sky130_fd_sc_hd__nand2_1
*CAP
1 *530:A3 0.000611715
2 *520:Y 0.000611715
3 *530:A3 *528:A2 0.0001829
4 *530:A3 *627:A 0.000126168
5 *530:A3 *432:8 5.41377e-05
6 *493:B1 *530:A3 0.000261135
7 *554:A2 *530:A3 5.05252e-05
8 *59:216 *530:A3 0.000364356
9 *59:227 *530:A3 0.000142194
10 *59:233 *530:A3 0
11 *59:248 *530:A3 2.07503e-05
12 *385:40 *530:A3 0.00031161
13 *401:12 *530:A3 5.23577e-05
*RES
1 *520:Y *530:A3 44.3551 
*END

*D_NET *427 0.000963938
*CONN
*I *902:A2 I *D sky130_fd_sc_hd__o21bai_1
*I *529:B I *D sky130_fd_sc_hd__nor3_1
*I *521:Y O *D sky130_fd_sc_hd__nor2_1
*CAP
1 *902:A2 6.03902e-05
2 *529:B 4.63435e-05
3 *521:Y 0.000103136
4 *427:10 0.00020987
5 *529:A *529:B 0.000114584
6 *529:A *902:A2 0.00014642
7 *530:B1 *529:B 9.04906e-05
8 *530:B1 *902:A2 5.04829e-06
9 *902:B1_N *529:B 2.36743e-05
10 *385:40 *427:10 0.000163982
*RES
1 *521:Y *427:10 21.3269 
2 *427:10 *529:B 11.6364 
3 *427:10 *902:A2 11.0817 
*END

*D_NET *429 0.0173024
*CONN
*I *917:CLK I *D sky130_fd_sc_hd__dfxtp_1
*I *916:CLK I *D sky130_fd_sc_hd__dfxtp_1
*I *924:CLK I *D sky130_fd_sc_hd__dfxtp_1
*I *915:CLK I *D sky130_fd_sc_hd__dfxtp_1
*I *922:CLK I *D sky130_fd_sc_hd__dfxtp_1
*I *921:CLK I *D sky130_fd_sc_hd__dfxtp_1
*I *923:CLK I *D sky130_fd_sc_hd__dfxtp_1
*I *522:A I *D sky130_fd_sc_hd__clkinvlp_4
*I *523:X O *D sky130_fd_sc_hd__clkbuf_8
*CAP
1 *917:CLK 3.29888e-05
2 *916:CLK 0
3 *924:CLK 2.12792e-05
4 *915:CLK 0
5 *922:CLK 0
6 *921:CLK 0
7 *923:CLK 0.00068971
8 *522:A 6.10456e-05
9 *523:X 0.000151249
10 *429:98 0.00108567
11 *429:94 0.00158289
12 *429:81 0.000962617
13 *429:72 0.00079424
14 *429:35 0.00124822
15 *429:29 0.000597146
16 *429:25 0.00100955
17 *429:10 0.000866071
18 *522:A *526:A 0.000255962
19 *522:A *765:B 1.65872e-05
20 *917:CLK *444:6 2.16355e-05
21 *923:CLK *905:A0 6.27718e-05
22 *429:10 *526:A 0.000127901
23 *429:10 *430:35 4.66094e-05
24 *429:25 *531:B 3.17114e-05
25 *429:25 *765:B 0.000116499
26 *429:35 *599:A 0.00068528
27 *429:72 *531:B 9.0845e-05
28 *429:72 *453:133 0.000120749
29 *429:81 *862:B 0.000113345
30 *429:81 *436:28 0.000161234
31 *429:94 *835:B2 0
32 *429:94 *444:19 1.29948e-05
33 *429:98 *843:A 5.49916e-05
34 *429:98 *453:243 0.000182779
35 *429:98 *453:253 0.000210072
36 *429:98 *454:531 0.000100971
37 *429:98 *455:298 0.000133201
38 *429:98 *455:325 1.37385e-05
39 exp_out[5] *429:29 1.00766e-05
40 exp_out[5] *429:35 0.000101958
41 exp_out[5] *429:72 1.43832e-05
42 *506:A1 *923:CLK 0.000213641
43 *506:A1 *429:35 1.88014e-05
44 *506:A2 *923:CLK 6.55651e-05
45 *506:B1 *923:CLK 0.000110306
46 *521:A *429:25 0.000116986
47 *530:B1 *429:25 3.87022e-06
48 *762:B1 *429:98 0.000256558
49 *786:A2 *429:94 0.000108795
50 *786:A2 *429:98 0.000409777
51 *824:A2 *429:98 1.41761e-05
52 *825:A1 *429:98 0.000121004
53 *844:B1 *429:98 0.000124338
54 *853:A *429:10 0
55 *853:C *429:10 3.08214e-05
56 *854:B1 *429:25 0.000143032
57 *864:A1 *429:25 3.25751e-05
58 *904:A1 *429:94 0.000243661
59 *915:D *429:81 1.87611e-05
60 *917:D *429:94 3.20069e-06
61 *917:D *429:98 0.000135206
62 *921:D *429:35 6.76229e-05
63 *922:D *429:25 9.76854e-05
64 *922:D *429:29 6.08467e-05
65 *922:D *429:72 8.14604e-05
66 *923:D *923:CLK 0.000452533
67 *924:D *429:94 0.000166801
68 *32:54 *429:25 0
69 *32:54 *429:72 1.50924e-05
70 *38:303 *429:98 0.000209824
71 *56:624 *429:10 2.55661e-06
72 *59:323 *429:98 4.7294e-05
73 *101:34 *429:10 4.19401e-06
74 *126:103 *429:98 0.00037897
75 *273:28 *429:98 0.000810534
76 *380:16 *429:25 9.43255e-05
77 *385:40 *429:25 8.61936e-05
78 *385:80 *429:25 4.4486e-06
79 *393:37 *522:A 0.000306898
80 *393:37 *429:25 0.000268954
81 *393:47 *429:25 2.69795e-05
82 *393:55 *429:98 0
83 *397:107 *429:98 9.83313e-05
84 *397:120 *429:98 6.07928e-05
*RES
1 *523:X *429:10 22.1574 
2 *429:10 *522:A 12.7456 
3 *429:10 *429:25 28.447 
4 *429:25 *429:29 1.30211 
5 *429:29 *429:35 17.5544 
6 *429:35 *923:CLK 24.1029 
7 *429:35 *921:CLK 9.24915 
8 *429:29 *922:CLK 9.24915 
9 *429:25 *429:72 17.9614 
10 *429:72 *915:CLK 9.24915 
11 *429:72 *429:81 11.8396 
12 *429:81 *924:CLK 9.82786 
13 *429:81 *429:94 16.8905 
14 *429:94 *429:98 44.5352 
15 *429:98 *916:CLK 9.24915 
16 *429:94 *917:CLK 14.4725 
*END

*D_NET *430 0.0188875
*CONN
*I *558:A2 I *D sky130_fd_sc_hd__o21ai_0
*I *526:A I *D sky130_fd_sc_hd__nand2_1
*I *852:B1 I *D sky130_fd_sc_hd__a21oi_1
*I *859:A I *D sky130_fd_sc_hd__nor2_1
*I *709:A1 I *D sky130_fd_sc_hd__a31oi_1
*I *607:A I *D sky130_fd_sc_hd__nor3_1
*I *858:A1 I *D sky130_fd_sc_hd__a21oi_1
*I *567:B I *D sky130_fd_sc_hd__nor2_1
*I *524:Y O *D sky130_fd_sc_hd__nor2_2
*CAP
1 *558:A2 0.000478932
2 *526:A 0.00014833
3 *852:B1 0
4 *859:A 4.96876e-05
5 *709:A1 0
6 *607:A 0.00141898
7 *858:A1 0.000253992
8 *567:B 0.000451033
9 *524:Y 0
10 *430:57 0.00132039
11 *430:53 0.000475276
12 *430:47 0.000668256
13 *430:35 0.000400602
14 *430:29 0.00217929
15 *430:4 0.00235104
16 *526:A *765:B 0.000301361
17 *567:B *524:A 2.58616e-05
18 *567:B *524:B 7.01935e-06
19 *567:B *453:30 0.000122574
20 *567:B *457:10 0.00012171
21 *430:29 *486:A 4.47179e-05
22 *430:29 *524:B 4.89251e-05
23 *430:35 *852:A1 0.00030921
24 *430:47 *852:A1 0
25 *430:47 *455:424 0.000208621
26 *498:A *430:29 0.000157107
27 *498:B *430:29 2.10768e-05
28 *522:A *526:A 0.000255962
29 *539:A1 *430:29 1.75e-05
30 *543:B1 *558:A2 1.63255e-05
31 *543:B1 *607:A 2.16355e-05
32 *550:A2 *430:29 0.000173841
33 *554:A2 *430:29 0.00034859
34 *558:A1 *558:A2 0.000162102
35 *583:A1 *858:A1 2.15348e-05
36 *608:A1 *430:29 5.481e-05
37 *609:C *430:29 7.67734e-06
38 *611:A1 *430:29 0.000250405
39 *611:B1 *430:29 9.80242e-07
40 *612:A3 *430:29 4.8463e-06
41 *622:A1 *558:A2 2.77564e-05
42 *709:A2 *430:57 1.91391e-05
43 *709:B1 *430:53 0.000291302
44 *712:A1 *858:A1 0.000640132
45 *712:A1 *430:57 4.06342e-05
46 *714:A1 *430:53 2.16355e-05
47 *724:C1 *430:53 0.000159903
48 *725:A1 *558:A2 0
49 *736:A2 *607:A 0.000889679
50 *851:B1 *430:47 1.83307e-05
51 *858:B1 *858:A1 0.000111722
52 *860:A2 *430:47 1.61918e-05
53 *860:A2 *430:53 3.42857e-05
54 *861:B1 *430:47 8.8569e-05
55 *20:12 *567:B 0.000300686
56 *33:50 *607:A 6.08467e-05
57 *34:31 *607:A 7.92757e-06
58 *34:40 *607:A 1.34424e-05
59 *35:20 *607:A 2.77625e-06
60 *39:30 *430:47 0.000307478
61 *39:32 *430:29 0.00025175
62 *40:85 *859:A 3.07159e-05
63 *41:30 *858:A1 0.00031613
64 *41:30 *430:53 2.10667e-05
65 *41:30 *430:57 0.000216244
66 *44:70 *430:47 1.00901e-05
67 *50:20 *430:29 0.00015901
68 *51:154 *558:A2 1.88563e-05
69 *51:173 *558:A2 1.68623e-05
70 *56:40 *567:B 6.2196e-05
71 *56:624 *526:A 4.49687e-05
72 *56:624 *430:35 0.00033216
73 *62:115 *858:A1 9.83674e-06
74 *95:76 *558:A2 3.31745e-05
75 *95:76 *607:A 2.16355e-05
76 *95:89 *558:A2 0.000339029
77 *101:34 *430:47 3.06664e-05
78 *107:50 *430:57 5.24461e-05
79 *168:101 *858:A1 5.73392e-05
80 *168:101 *430:53 8.36586e-06
81 *249:8 *859:A 6.78596e-05
82 *310:16 *430:35 5.21758e-06
83 *385:80 *430:47 0.000115606
84 *385:80 *430:53 0.000172446
85 *385:101 *430:53 0.000338344
86 *393:37 *526:A 2.83829e-05
87 *429:10 *526:A 0.000127901
88 *429:10 *430:35 4.66094e-05
*RES
1 *524:Y *430:4 9.24915 
2 *430:4 *567:B 30.2807 
3 *430:4 *430:29 34.7862 
4 *430:29 *430:35 9.82841 
5 *430:35 *430:47 22.458 
6 *430:47 *430:53 16.4696 
7 *430:53 *430:57 8.82351 
8 *430:57 *858:A1 24.3393 
9 *430:57 *607:A 28.9163 
10 *430:53 *709:A1 9.24915 
11 *430:47 *859:A 15.2053 
12 *430:35 *852:B1 9.24915 
13 *430:29 *526:A 19.9081 
14 *607:A *558:A2 39.1798 
*END

*D_NET *431 0.0171877
*CONN
*I *526:B I *D sky130_fd_sc_hd__nand2_1
*I *765:B I *D sky130_fd_sc_hd__nand2_1
*I *706:A2 I *D sky130_fd_sc_hd__a221oi_1
*I *665:A2 I *D sky130_fd_sc_hd__a21oi_1
*I *878:A2 I *D sky130_fd_sc_hd__o21ai_1
*I *801:A2 I *D sky130_fd_sc_hd__o21ai_0
*I *525:Y O *D sky130_fd_sc_hd__nor2_1
*CAP
1 *526:B 0
2 *765:B 0.000899513
3 *706:A2 0
4 *665:A2 2.17261e-05
5 *878:A2 0.000741469
6 *801:A2 2.01025e-05
7 *525:Y 3.95012e-05
8 *431:72 0.00121833
9 *431:24 0.00200951
10 *431:14 0.00167164
11 *431:12 0.00118471
12 *431:6 0.00114105
13 *878:A2 *753:B2 0
14 *878:A2 *455:220 3.07159e-05
15 *431:6 *537:A1 5.04829e-06
16 *431:12 *537:A1 1.65872e-05
17 *431:12 *537:B1 1.5714e-05
18 *431:72 *627:A 0.000222448
19 *522:A *765:B 1.65872e-05
20 *526:A *765:B 0.000301361
21 *537:A2 *431:12 0.000200794
22 *542:A *431:14 0.000212467
23 *550:B1 *431:12 1.07529e-05
24 *554:A2 *431:72 0.000164203
25 *603:A1 *431:12 8.73145e-05
26 *698:A2 *431:24 0.000212198
27 *705:A1 *431:14 0.000257972
28 *725:A3 *431:12 4.12745e-05
29 *735:A2 *878:A2 0.00035184
30 *749:D1 *431:14 0.000223785
31 *749:D1 *431:24 7.88662e-05
32 *773:C1 *878:A2 9.66954e-05
33 *782:B2 *878:A2 1.5714e-05
34 *801:A1 *878:A2 3.64081e-05
35 *814:A *431:24 0.000217028
36 *816:A1 *431:14 0.000249029
37 *816:A1 *431:24 1.4091e-06
38 *816:A2 *665:A2 6.27718e-05
39 *816:A2 *431:24 1.84673e-05
40 *816:A3 *431:14 4.15838e-05
41 *817:A2 *431:24 1.37563e-05
42 *817:A3 *431:24 1.56911e-05
43 *822:B *431:12 0.000424551
44 *838:B1 *431:24 4.83026e-05
45 *850:A2 *431:72 8.02893e-06
46 *853:B *765:B 0.00050731
47 *853:B *431:72 2.19936e-05
48 *854:A2 *431:72 0
49 *870:A *431:12 0.000434762
50 *878:B1 *878:A2 0.000253745
51 *884:B *878:A2 7.1663e-05
52 *885:C1 *878:A2 4.13432e-05
53 *26:24 *878:A2 0
54 *27:43 *431:72 0.000112796
55 *30:276 *431:14 1.34048e-05
56 *30:276 *431:24 4.17223e-05
57 *30:328 *878:A2 1.27597e-05
58 *33:50 *431:12 8.8569e-05
59 *34:31 *431:12 2.52886e-05
60 *34:31 *431:14 6.77595e-05
61 *35:20 *431:12 0.00020333
62 *37:126 *431:24 3.64303e-05
63 *37:137 *431:24 1.38536e-05
64 *38:174 *431:24 1.4091e-06
65 *38:219 *801:A2 4.31603e-06
66 *38:219 *431:24 0.000276562
67 *40:194 *878:A2 0
68 *44:61 *431:6 8.23171e-06
69 *48:157 *431:12 9.12416e-06
70 *48:157 *431:14 4.12977e-05
71 *59:277 *765:B 0.000132826
72 *59:356 *878:A2 0
73 *62:94 *431:24 9.43286e-05
74 *168:58 *431:24 1.97806e-05
75 *186:32 *801:A2 4.31603e-06
76 *186:32 *878:A2 2.57847e-05
77 *186:32 *431:24 2.44689e-05
78 *237:34 *431:14 1.85244e-05
79 *244:14 *878:A2 0.000630159
80 *334:12 *765:B 0.000136287
81 *371:26 *878:A2 0.000195112
82 *393:22 *765:B 7.18683e-06
83 *393:37 *765:B 4.39856e-05
84 *397:134 *765:B 0.000784485
85 *422:139 *431:12 1.29597e-05
86 *422:139 *431:14 6.38982e-06
87 *429:25 *765:B 0.000116499
*RES
1 *525:Y *431:6 9.97254 
2 *431:6 *431:12 26.2991 
3 *431:12 *431:14 13.4591 
4 *431:14 *431:24 27.3534 
5 *431:24 *801:A2 9.82786 
6 *431:24 *878:A2 41.1869 
7 *431:14 *665:A2 14.4725 
8 *431:12 *706:A2 13.7491 
9 *431:6 *431:72 17.9646 
10 *431:72 *765:B 40.5639 
11 *431:72 *526:B 9.24915 
*END

*D_NET *432 0.00115722
*CONN
*I *528:A2 I *D sky130_fd_sc_hd__a21oi_1
*I *553:A3 I *D sky130_fd_sc_hd__a31oi_1
*I *526:Y O *D sky130_fd_sc_hd__nand2_1
*CAP
1 *528:A2 0.000151325
2 *553:A3 0
3 *526:Y 6.4026e-05
4 *432:8 0.000215351
5 *528:A1 *528:A2 3.75217e-05
6 *528:B1 *528:A2 6.50727e-05
7 *529:C *528:A2 0.000182946
8 *530:A3 *528:A2 0.0001829
9 *530:A3 *432:8 5.41377e-05
10 *553:A1 *528:A2 3.67708e-05
11 *553:A1 *432:8 2.66001e-05
12 *553:A2 *432:8 5.30622e-05
13 *554:A2 *432:8 2.1297e-05
14 *853:B *432:8 1.91246e-05
15 *854:A2 *432:8 3.89332e-06
16 *902:B1_N *528:A2 1.92336e-05
17 *59:233 *528:A2 0
18 *405:44 *528:A2 2.39581e-05
*RES
1 *526:Y *432:8 15.9964 
2 *432:8 *553:A3 13.7491 
3 *432:8 *528:A2 20.2081 
*END

*D_NET *434 0.0104201
*CONN
*P clk I
*I *535:A I *D sky130_fd_sc_hd__clkbuf_8
*CAP
1 clk 0.00490622
2 *535:A 0
3 *434:26 0.00490622
4 *434:26 *905:S 0.00012601
5 *871:A2 *434:26 4.76978e-05
6 *27:23 *434:26 1.29115e-05
7 *44:50 *434:26 0.000180646
8 *237:34 *434:26 0
9 *422:139 *434:26 1.93467e-05
10 *422:150 *434:26 0.000220995
*RES
1 clk *434:26 19.8304 
2 *434:26 *535:A 13.7491 
*END

*D_NET *435 0.00833712
*CONN
*I *907:B_N I *D sky130_fd_sc_hd__nor2b_1
*I *905:S I *D sky130_fd_sc_hd__mux2i_1
*I *888:S I *D sky130_fd_sc_hd__mux2i_1
*I *892:S I *D sky130_fd_sc_hd__mux2i_1
*I *890:S I *D sky130_fd_sc_hd__mux2i_1
*I *896:S I *D sky130_fd_sc_hd__mux2i_1
*I *894:S I *D sky130_fd_sc_hd__mux2i_1
*I *900:S I *D sky130_fd_sc_hd__mux2i_1
*I *898:S I *D sky130_fd_sc_hd__mux2i_1
*I *914:X O *D sky130_fd_sc_hd__clkdlybuf4s50_1
*CAP
1 *907:B_N 8.27332e-06
2 *905:S 0.000355245
3 *888:S 0.000206734
4 *892:S 0
5 *890:S 0
6 *896:S 0
7 *894:S 7.46021e-05
8 *900:S 4.25479e-05
9 *898:S 0.000149012
10 *914:X 0.000263616
11 *435:80 0.000853551
12 *435:69 0.000674758
13 *435:22 0.000571914
14 *435:20 0.000789953
15 *435:16 0.000579739
16 *435:10 0.000384639
17 *435:6 0.000778425
18 *888:S *888:A0 0.000112361
19 *894:S *894:A0 0.000224395
20 *905:S *905:A0 0.000225367
21 *907:B_N *888:A0 6.46815e-05
22 *435:16 *896:A0 0.00016195
23 *435:20 *894:A1 0.000285796
24 *435:20 *456:12 2.86829e-05
25 *435:22 *894:A1 5.77352e-05
26 *889:A *888:S 7.67734e-06
27 *889:A *907:B_N 6.46815e-05
28 *893:B *435:10 2.71397e-05
29 *925:D *888:S 3.14978e-05
30 *930:D *435:6 6.50586e-05
31 *930:D *435:69 0.000185858
32 *930:CLK *435:6 3.83564e-05
33 *933:CLK *435:80 2.02354e-05
34 *20:109 *435:10 0
35 *20:109 *435:16 0
36 *20:120 *435:10 0
37 *32:92 *435:16 0.00034494
38 *32:96 *435:22 0
39 *32:98 *898:S 0
40 *32:131 *900:S 4.89251e-05
41 *32:210 *435:10 8.85525e-05
42 *32:210 *435:16 2.71542e-05
43 *32:221 *435:10 1.55462e-05
44 *32:221 *435:69 0
45 *32:242 *888:S 0.000112361
46 *56:40 *435:20 0
47 *56:62 *435:20 0
48 *57:42 *435:22 0
49 *57:48 *435:22 0
50 *57:52 *435:22 0
51 *354:10 *898:S 7.00507e-05
52 *354:10 *435:22 0.0001691
53 *434:26 *905:S 0.00012601
*RES
1 *914:X *435:6 13.3002 
2 *435:6 *435:10 8.82351 
3 *435:10 *435:16 13.1476 
4 *435:16 *435:20 14.2218 
5 *435:20 *435:22 10.5523 
6 *435:22 *898:S 17.5503 
7 *435:22 *900:S 15.0271 
8 *435:20 *894:S 16.1364 
9 *435:16 *896:S 9.24915 
10 *435:10 *890:S 13.7491 
11 *435:6 *435:69 11.2135 
12 *435:69 *892:S 13.7491 
13 *435:69 *435:80 11.315 
14 *435:80 *888:S 14.964 
15 *435:80 *905:S 18.8462 
16 *888:S *907:B_N 19.2217 
*END

*D_NET *436 0.00366103
*CONN
*I *637:A I *D sky130_fd_sc_hd__clkdlybuf4s50_1
*I *874:A2 I *D sky130_fd_sc_hd__o221ai_1
*I *862:B I *D sky130_fd_sc_hd__nand2b_1
*I *915:Q O *D sky130_fd_sc_hd__dfxtp_1
*CAP
1 *637:A 8.72728e-05
2 *874:A2 0.000385048
3 *862:B 0.000572977
4 *915:Q 0.000681271
5 *436:28 0.000580614
6 *862:B *453:133 1.63652e-05
7 *862:B *453:135 1.60687e-05
8 *862:B *453:148 1.03594e-05
9 *862:B *461:59 1.04572e-05
10 *824:D1 *874:A2 8.01987e-05
11 *874:C1 *874:A2 8.58642e-05
12 *904:B1 *637:A 8.12683e-05
13 *904:B1 *874:A2 0.000418763
14 *915:D *862:B 0.000138164
15 *32:305 *874:A2 8.01987e-05
16 *380:16 *862:B 3.12627e-05
17 *385:130 *874:A2 0.000110294
18 *429:81 *862:B 0.000113345
19 *429:81 *436:28 0.000161234
*RES
1 *915:Q *862:B 37.8891 
2 *915:Q *436:28 15.5817 
3 *436:28 *874:A2 25.0276 
4 *436:28 *637:A 15.9964 
*END

*D_NET *437 0.000324659
*CONN
*P exp_out[10] O
*I *934:LO O *D sky130_fd_sc_hd__conb_1
*CAP
1 exp_out[10] 8.86739e-05
2 *934:LO 8.86739e-05
3 exp_out[10] exp_out[12] 3.98431e-05
4 exp_out[10] exp_out[13] 0.000107468
*RES
1 *934:LO exp_out[10] 17.8657 
*END

*D_NET *438 0.000569174
*CONN
*P exp_out[11] O
*I *935:LO O *D sky130_fd_sc_hd__conb_1
*CAP
1 exp_out[11] 0.000231593
2 *935:LO 0.000231593
3 exp_out[11] exp_out[13] 0.000105988
4 exp_out[11] exp_out[15] 0
*RES
1 *935:LO exp_out[11] 19.6797 
*END

*D_NET *439 0.000355397
*CONN
*P exp_out[12] O
*I *936:LO O *D sky130_fd_sc_hd__conb_1
*CAP
1 exp_out[12] 0.000139419
2 *936:LO 0.000139419
3 exp_out[12] exp_out[14] 3.67159e-05
4 exp_out[10] exp_out[12] 3.98431e-05
*RES
1 *936:LO exp_out[12] 18.6962 
*END

*D_NET *440 0.00035844
*CONN
*P exp_out[13] O
*I *937:LO O *D sky130_fd_sc_hd__conb_1
*CAP
1 exp_out[13] 7.24921e-05
2 *937:LO 7.24921e-05
3 exp_out[10] exp_out[13] 0.000107468
4 exp_out[11] exp_out[13] 0.000105988
*RES
1 *937:LO exp_out[13] 17.8657 
*END

*D_NET *441 0.000276347
*CONN
*P exp_out[14] O
*I *938:LO O *D sky130_fd_sc_hd__conb_1
*CAP
1 exp_out[14] 0.000119816
2 *938:LO 0.000119816
3 exp_out[12] exp_out[14] 3.67159e-05
*RES
1 *938:LO exp_out[14] 17.8657 
*END

*D_NET *442 0.00028042
*CONN
*P exp_out[15] O
*I *939:LO O *D sky130_fd_sc_hd__conb_1
*CAP
1 exp_out[15] 0.00014021
2 *939:LO 0.00014021
3 exp_out[11] exp_out[15] 0
*RES
1 *939:LO exp_out[15] 18.2809 
*END

*D_NET *443 0.00560837
*CONN
*I *629:A I *D sky130_fd_sc_hd__clkdlybuf4s50_1
*I *808:B I *D sky130_fd_sc_hd__nor2_1
*I *916:Q O *D sky130_fd_sc_hd__dfxtp_1
*CAP
1 *629:A 0
2 *808:B 6.10183e-05
3 *916:Q 7.39879e-05
4 *443:23 0.00086174
5 *443:6 0.000996746
6 *808:B *808:A 7.88178e-05
7 *443:23 *808:A 3.99086e-06
8 *809:B *808:B 6.98337e-06
9 *809:B *443:6 6.64392e-05
10 *810:A2 *443:23 2.28064e-05
11 *828:A2 *443:23 1.94615e-05
12 *833:C1 *443:23 0.000877093
13 *834:A2 *443:23 7.14746e-05
14 *834:B1 *443:23 3.43484e-05
15 *835:A1 *443:23 0
16 *32:10 *443:23 6.37199e-05
17 *32:16 *443:23 0.000208767
18 *56:416 *443:23 0.000298543
19 *233:25 *443:23 0.000194345
20 *317:10 *443:23 0.00166809
*RES
1 *916:Q *443:6 10.5271 
2 *443:6 *808:B 11.3711 
3 *443:6 *443:23 47.8217 
4 *443:23 *629:A 9.24915 
*END

*D_NET *444 0.00354527
*CONN
*I *628:A I *D sky130_fd_sc_hd__clkdlybuf4s50_1
*I *727:A I *D sky130_fd_sc_hd__inv_1
*I *784:A2 I *D sky130_fd_sc_hd__o21a_1
*I *917:Q O *D sky130_fd_sc_hd__dfxtp_1
*CAP
1 *628:A 0.00047414
2 *727:A 6.51936e-06
3 *784:A2 4.47238e-05
4 *917:Q 0.000633577
5 *444:19 0.00057133
6 *444:6 0.000768971
7 *628:A *572:A 0.000220183
8 *727:A *835:B2 2.6874e-05
9 *784:A2 *784:A1 8.57495e-05
10 exp_out[0] *628:A 0
11 exp_out[9] *628:A 2.61147e-05
12 *786:A2 *444:19 7.37686e-05
13 *904:A1 *628:A 0.000326294
14 *904:A1 *444:19 8.36586e-06
15 *917:D *444:6 6.67095e-06
16 *917:CLK *444:6 2.16355e-05
17 *924:D *628:A 0.000210484
18 *380:16 *727:A 2.6874e-05
19 *385:130 *444:19 0
20 *429:94 *444:19 1.29948e-05
*RES
1 *917:Q *444:6 18.2916 
2 *444:6 *784:A2 10.9612 
3 *444:6 *444:19 6.74725 
4 *444:19 *727:A 14.0686 
5 *444:19 *628:A 28.5159 
*END

*D_NET *445 0.00721335
*CONN
*I *627:A I *D sky130_fd_sc_hd__clkdlybuf4s50_1
*I *713:B I *D sky130_fd_sc_hd__nand2b_1
*I *918:Q O *D sky130_fd_sc_hd__dfxtp_1
*CAP
1 *627:A 0.00119381
2 *713:B 4.80788e-06
3 *918:Q 0.000615744
4 *445:10 0.00181436
5 *627:A *533:B 3.00174e-06
6 *627:A *550:A1 0.000131529
7 *627:A *822:A 0.000157773
8 *627:A *454:368 0.000366331
9 exp_out[3] *627:A 6.27718e-05
10 *502:B *627:A 6.27718e-05
11 *525:A *627:A 0.000210815
12 *530:A3 *627:A 0.000126168
13 *543:B1 *445:10 0
14 *544:A2 *627:A 5.21758e-06
15 *550:B1 *627:A 9.68966e-06
16 *551:A2 *627:A 0.000110109
17 *554:A2 *627:A 0.000303583
18 *554:B1 *627:A 6.17194e-05
19 *668:B1_N *445:10 0.000229397
20 *725:B1 *713:B 1.47046e-05
21 *736:A2 *445:10 9.43255e-05
22 *816:B1 *445:10 0.000109427
23 *849:A2 *627:A 0
24 *850:A1 *627:A 3.54565e-05
25 *850:A1 *445:10 3.88893e-05
26 *850:A2 *627:A 0
27 *26:55 *445:10 1.65872e-05
28 *27:43 *627:A 7.3844e-06
29 *35:20 *627:A 1.00004e-05
30 *35:20 *445:10 0.000150454
31 *107:69 *713:B 5.22859e-06
32 *189:14 *445:10 0.00048448
33 *398:32 *627:A 0
34 *401:12 *627:A 0.000241269
35 *422:125 *445:10 0.000231
36 *422:139 *627:A 4.34058e-05
37 *422:139 *445:10 3.86898e-05
38 *431:72 *627:A 0.000222448
*RES
1 *918:Q *445:10 31.5323 
2 *445:10 *713:B 13.924 
3 *445:10 *627:A 47.8637 
*END

*D_NET *446 0.0027975
*CONN
*I *625:B_N I *D sky130_fd_sc_hd__nor2b_1
*I *605:A I *D sky130_fd_sc_hd__clkdlybuf4s50_1
*I *919:Q O *D sky130_fd_sc_hd__dfxtp_1
*CAP
1 *625:B_N 0
2 *605:A 0.00055509
3 *919:Q 0.000505064
4 *446:18 0.00106015
5 *605:A *910:A 2.98992e-05
6 *605:A *454:330 0.000316478
7 *446:18 *625:A 1.94472e-05
8 *446:18 *454:330 1.88422e-05
9 *626:B1 *446:18 6.08467e-05
10 *919:D *446:18 8.36586e-06
11 *57:42 *605:A 2.58757e-05
12 *57:42 *446:18 9.15934e-05
13 *374:14 *605:A 0.00010584
*RES
1 *919:Q *446:18 27.8133 
2 *446:18 *605:A 34.5275 
3 *446:18 *625:B_N 9.24915 
*END

*D_NET *447 0.00408113
*CONN
*I *599:A I *D sky130_fd_sc_hd__clkdlybuf4s50_1
*I *564:B I *D sky130_fd_sc_hd__nand2b_1
*I *920:Q O *D sky130_fd_sc_hd__dfxtp_1
*CAP
1 *599:A 0.000603559
2 *564:B 0.000334658
3 *920:Q 0.000938217
4 *564:B *595:A 2.16355e-05
5 *564:B *595:B 0.000176492
6 *564:B *461:36 4.23858e-05
7 *599:A *448:8 0.000161956
8 *599:A *461:46 0.000120749
9 exp_out[3] *599:A 0.000163344
10 *501:B *564:B 9.98296e-05
11 *501:B *599:A 5.26502e-05
12 *501:C *599:A 0.000310505
13 *502:D *599:A 0.000112231
14 *563:A2 *599:A 4.51709e-05
15 *902:B1_N *564:B 1.19721e-05
16 *921:D *599:A 0.000188503
17 *86:10 *564:B 1.19856e-05
18 *429:35 *599:A 0.00068528
*RES
1 *920:Q *564:B 36.5281 
2 *920:Q *599:A 47.8489 
*END

*D_NET *448 0.00135839
*CONN
*I *591:A I *D sky130_fd_sc_hd__clkdlybuf4s50_1
*I *533:B I *D sky130_fd_sc_hd__nand2b_1
*I *921:Q O *D sky130_fd_sc_hd__dfxtp_1
*CAP
1 *591:A 0.000232147
2 *533:B 0.000127982
3 *921:Q 0.000105163
4 *448:8 0.000465293
5 exp_out[3] *533:B 0.000130441
6 exp_out[3] *591:A 0
7 *502:B *533:B 0.000128531
8 *599:A *448:8 0.000161956
9 *627:A *533:B 3.00174e-06
10 *401:12 *533:B 3.87022e-06
*RES
1 *921:Q *448:8 15.5817 
2 *448:8 *533:B 17.4552 
3 *448:8 *591:A 19.2113 
*END

*D_NET *449 0.0012508
*CONN
*I *585:A I *D sky130_fd_sc_hd__clkdlybuf4s50_1
*I *531:B I *D sky130_fd_sc_hd__nor2_1
*I *922:Q O *D sky130_fd_sc_hd__dfxtp_1
*CAP
1 *585:A 6.33915e-05
2 *531:B 0.000500732
3 *922:Q 0
4 *449:4 0.000564124
5 *429:25 *531:B 3.17114e-05
6 *429:72 *531:B 9.0845e-05
*RES
1 *922:Q *449:4 9.24915 
2 *449:4 *531:B 26.7658 
3 *449:4 *585:A 10.9612 
*END

*D_NET *450 0.00119095
*CONN
*I *503:B I *D sky130_fd_sc_hd__nand2b_1
*I *576:A I *D sky130_fd_sc_hd__clkdlybuf4s50_1
*I *923:Q O *D sky130_fd_sc_hd__dfxtp_1
*CAP
1 *503:B 0.000198685
2 *576:A 0.000250844
3 *923:Q 0
4 *450:6 0.000449529
5 *576:A *453:84 6.27332e-05
6 exp_out[8] *503:B 0
7 *506:A2 *503:B 2.65667e-05
8 *506:A2 *576:A 0
9 *506:B1 *576:A 0.000139817
10 *32:72 *576:A 6.27782e-05
*RES
1 *923:Q *450:6 13.7491 
2 *450:6 *576:A 20.4599 
3 *450:6 *503:B 18.4251 
*END

*D_NET *451 0.00132163
*CONN
*I *572:A I *D sky130_fd_sc_hd__clkdlybuf4s50_1
*I *903:B I *D sky130_fd_sc_hd__nand2b_1
*I *924:Q O *D sky130_fd_sc_hd__dfxtp_1
*CAP
1 *572:A 0.000205227
2 *903:B 6.91679e-06
3 *924:Q 0.00025989
4 *451:10 0.000472033
5 exp_out[0] *572:A 0
6 exp_out[9] *572:A 0.00012316
7 *628:A *572:A 0.000220183
8 *904:A1 *451:10 1.95129e-05
9 *904:A2 *903:B 1.47046e-05
*RES
1 *924:Q *451:10 18.3836 
2 *451:10 *903:B 13.924 
3 *451:10 *572:A 20.5992 
*END

*D_NET *452 0.00157172
*CONN
*I *540:A I *D sky130_fd_sc_hd__buf_4
*I *913:X O *D sky130_fd_sc_hd__clkdlybuf4s50_1
*CAP
1 *540:A 0.000785859
2 *913:X 0.000785859
*RES
1 *913:X *540:A 39.7578 
*END

*D_NET *453 0.0392356
*CONN
*I *503:A_N I *D sky130_fd_sc_hd__nand2b_1
*I *502:A I *D sky130_fd_sc_hd__nand4_1
*I *532:A1 I *D sky130_fd_sc_hd__a311oi_1
*I *784:A1 I *D sky130_fd_sc_hd__o21a_1
*I *786:A1 I *D sky130_fd_sc_hd__o311ai_1
*I *806:B_N I *D sky130_fd_sc_hd__nor2b_1
*I *808:A I *D sky130_fd_sc_hd__nor2_1
*I *796:A I *D sky130_fd_sc_hd__nand3_1
*I *874:A1 I *D sky130_fd_sc_hd__o221ai_1
*I *903:A_N I *D sky130_fd_sc_hd__nand2b_1
*I *610:B I *D sky130_fd_sc_hd__nand2_1
*I *860:B1 I *D sky130_fd_sc_hd__o211a_1
*I *708:C1 I *D sky130_fd_sc_hd__o2111ai_1
*I *862:A_N I *D sky130_fd_sc_hd__nand2b_1
*I *531:A I *D sky130_fd_sc_hd__nor2_1
*I *533:A_N I *D sky130_fd_sc_hd__nand2b_1
*I *562:A I *D sky130_fd_sc_hd__nand3_1
*I *564:A_N I *D sky130_fd_sc_hd__nand2b_1
*I *595:B I *D sky130_fd_sc_hd__nand2_1
*I *713:A_N I *D sky130_fd_sc_hd__nand2b_1
*I *625:A I *D sky130_fd_sc_hd__nor2b_1
*I *925:Q O *D sky130_fd_sc_hd__dfxtp_1
*CAP
1 *503:A_N 0.000463962
2 *502:A 1.50788e-05
3 *532:A1 0
4 *784:A1 0.000142319
5 *786:A1 0
6 *806:B_N 0
7 *808:A 0.000225975
8 *796:A 0.000445722
9 *874:A1 1.91583e-05
10 *903:A_N 0.000952573
11 *610:B 0
12 *860:B1 0
13 *708:C1 0.000562713
14 *862:A_N 1.25637e-05
15 *531:A 2.12792e-05
16 *533:A_N 4.89608e-05
17 *562:A 0.000158553
18 *564:A_N 0
19 *595:B 0.000160024
20 *713:A_N 0.000891366
21 *625:A 0.000219778
22 *925:Q 0.000411179
23 *453:253 0.0011398
24 *453:243 0.00134482
25 *453:227 0.00111767
26 *453:219 0.000533132
27 *453:210 0.000421413
28 *453:183 0.00165603
29 *453:152 0.000980479
30 *453:148 0.000587468
31 *453:135 0.000222426
32 *453:133 0.000690313
33 *453:120 0.00043057
34 *453:116 0.000931141
35 *453:90 0.000207513
36 *453:88 0.000952902
37 *453:84 0.000664815
38 *453:62 0.000260737
39 *453:30 0.0021291
40 *453:14 0.00134547
41 *453:10 0.000999596
42 *453:6 0.00123017
43 *595:B *595:A 1.64789e-05
44 *713:A_N *615:A1 6.0699e-05
45 *862:A_N *461:59 2.58757e-05
46 *453:6 *905:A1 1.05422e-05
47 *453:10 *905:A0 4.04935e-05
48 *453:10 *905:A1 0
49 *453:30 *524:A 0.000162542
50 *453:30 *454:330 3.11725e-05
51 *453:30 *457:16 0.000156258
52 *453:84 *905:A0 3.46069e-05
53 *453:84 *461:10 0.000506134
54 *453:183 *835:B2 7.42408e-05
55 *453:183 *461:59 0.000257151
56 *453:243 *717:A 2.8322e-05
57 *453:243 *454:497 0
58 *453:243 *455:325 0.000105313
59 *453:243 *455:342 1.4979e-05
60 exp_out[7] *903:A_N 3.17192e-06
61 *532:A3 *453:116 3.20597e-05
62 *554:C1 *562:A 0.000205241
63 *562:B *562:A 1.07248e-05
64 *563:A2 *533:A_N 6.4309e-05
65 *563:A2 *562:A 0.000255643
66 *564:B *595:B 0.000176492
67 *567:B *453:30 0.000122574
68 *576:A *453:84 6.27332e-05
69 *603:B1 *453:30 0.00014769
70 *612:A1 *595:B 4.58003e-05
71 *615:B1 *713:A_N 0.000107496
72 *619:B1 *713:A_N 1.18245e-05
73 *716:A *453:6 0.00021217
74 *718:C *453:243 0.000103829
75 *719:C1 *453:243 0.000252522
76 *725:A1 *713:A_N 0.000642944
77 *725:A2 *713:A_N 5.34937e-05
78 *725:A3 *713:A_N 6.27782e-05
79 *725:B1 *713:A_N 4.25388e-05
80 *725:B2 *713:A_N 1.98846e-05
81 *740:B1 *708:C1 0.000328184
82 *745:B_N *796:A 2.57986e-05
83 *784:A2 *784:A1 8.57495e-05
84 *784:B1 *784:A1 0.000107392
85 *784:B1 *453:219 6.23875e-05
86 *785:C1 *453:227 0.000238926
87 *786:A2 *453:227 0
88 *786:A3 *453:243 8.79081e-06
89 *786:B1 *453:227 0.000160617
90 *796:B *796:A 6.00398e-05
91 *808:B *808:A 7.88178e-05
92 *809:B *808:A 3.53421e-05
93 *810:A2 *796:A 0
94 *819:B1 *796:A 0
95 *820:A1 *796:A 2.01407e-05
96 *820:B1 *796:A 6.3657e-05
97 *821:A4 *796:A 6.50586e-05
98 *823:A1 *713:A_N 9.09456e-05
99 *824:A1 *453:227 2.01274e-05
100 *824:A1 *453:243 0.00019517
101 *824:D1 *453:227 8.36615e-05
102 *829:B1 *453:253 0.000345238
103 *843:B *453:243 1.62104e-05
104 *844:A2 *453:243 0.000119035
105 *847:A2 *453:243 0.000162583
106 *860:A1 *453:152 0
107 *860:A2 *708:C1 9.41166e-05
108 *861:A2 *708:C1 0.000256684
109 *861:B2 *708:C1 1.5714e-05
110 *862:B *453:133 1.63652e-05
111 *862:B *453:135 1.60687e-05
112 *862:B *453:148 1.03594e-05
113 *863:A2 *453:148 0.000105183
114 *863:A2 *453:152 1.07248e-05
115 *871:A2 *625:A 0.000299381
116 *871:A2 *713:A_N 0.00105073
117 *874:C1 *453:210 7.16893e-05
118 *874:C1 *453:219 5.8334e-05
119 *892:A0 *453:14 0
120 *904:A2 *903:A_N 4.03096e-05
121 *904:B1 *903:A_N 0.000454642
122 *904:B1 *453:210 0
123 *915:D *453:148 5.77387e-05
124 *915:D *453:152 3.31736e-05
125 *922:D *453:116 3.28433e-06
126 *32:39 *453:152 0
127 *32:54 *453:120 0.000138943
128 *32:54 *453:133 7.80882e-05
129 *32:54 *453:135 3.67259e-05
130 *32:64 *502:A 1.0759e-05
131 *32:64 *453:88 0.000167909
132 *32:64 *453:116 0.000779222
133 *32:64 *453:120 7.20028e-05
134 *32:72 *502:A 4.76161e-06
135 *32:72 *453:84 0.000458191
136 *32:72 *453:88 2.8212e-05
137 *32:305 *453:227 0
138 *38:335 *796:A 0.000529521
139 *38:335 *453:253 0.000132307
140 *40:95 *708:C1 4.88112e-06
141 *40:178 *453:253 0.000144241
142 *44:151 *453:253 0.000188809
143 *44:165 *453:253 0.000109602
144 *51:106 *453:253 0.000393153
145 *56:23 *453:14 2.95757e-05
146 *56:23 *453:30 0.000224381
147 *56:23 *453:62 6.08467e-05
148 *56:40 *453:30 0
149 *56:62 *453:30 0.000115342
150 *56:403 *453:253 1.37367e-05
151 *56:584 *453:243 0.000121961
152 *56:608 *453:243 0.000281643
153 *57:160 *562:A 1.5254e-05
154 *57:220 *453:227 0.000126889
155 *59:20 *453:14 7.44948e-05
156 *59:20 *453:84 0.000112361
157 *59:259 *453:152 5.2504e-06
158 *59:290 *708:C1 0
159 *59:290 *453:152 7.09666e-06
160 *59:317 *453:243 4.96168e-05
161 *59:323 *453:243 5.03545e-06
162 *59:323 *453:253 1.07549e-05
163 *61:24 *453:30 0.000102868
164 *86:10 *595:B 1.41976e-05
165 *86:10 *713:A_N 0.000115223
166 *101:8 *453:152 0.000302982
167 *101:34 *453:152 0.000136393
168 *107:69 *713:A_N 0.000877328
169 *218:20 *808:A 0.00011818
170 *218:20 *453:253 6.94523e-05
171 *233:25 *796:A 0
172 *290:22 *796:A 0.000203978
173 *357:18 *453:152 1.96919e-05
174 *357:18 *453:210 3.60363e-05
175 *380:16 *862:A_N 6.46815e-05
176 *385:14 *453:210 0
177 *385:26 *453:152 5.96936e-05
178 *385:130 *453:227 1.44467e-05
179 *393:55 *453:243 1.15094e-05
180 *397:107 *453:243 2.76764e-05
181 *397:107 *453:253 0.000182935
182 *397:120 *453:243 1.83586e-05
183 *397:134 *453:227 6.55124e-05
184 *429:72 *453:133 0.000120749
185 *429:98 *453:243 0.000182779
186 *429:98 *453:253 0.000210072
187 *443:23 *808:A 3.99086e-06
188 *446:18 *625:A 1.94472e-05
*RES
1 *925:Q *453:6 15.5186 
2 *453:6 *453:10 12.976 
3 *453:10 *453:14 10.4845 
4 *453:14 *453:30 37.2208 
5 *453:30 *625:A 17.9289 
6 *453:30 *713:A_N 35.6886 
7 *453:14 *453:62 2.38721 
8 *453:62 *595:B 15.0122 
9 *453:62 *564:A_N 9.24915 
10 *453:10 *453:84 18.7121 
11 *453:84 *453:88 4.07513 
12 *453:88 *453:90 4.5 
13 *453:90 *562:A 19.3184 
14 *453:90 *533:A_N 15.1659 
15 *453:88 *453:116 21.9535 
16 *453:116 *453:120 5.73894 
17 *453:120 *531:A 9.82786 
18 *453:120 *453:133 9.96496 
19 *453:133 *453:135 1.41674 
20 *453:135 *862:A_N 14.4725 
21 *453:135 *453:148 4.37236 
22 *453:148 *453:152 12.4087 
23 *453:152 *708:C1 26.1368 
24 *453:152 *860:B1 13.7491 
25 *453:148 *610:B 13.7491 
26 *453:133 *453:183 16.3786 
27 *453:183 *903:A_N 31.2532 
28 *453:183 *453:210 10.4043 
29 *453:210 *874:A1 9.82786 
30 *453:210 *453:219 3.49641 
31 *453:219 *453:227 18.0629 
32 *453:227 *453:243 37.6027 
33 *453:243 *453:253 27.2357 
34 *453:253 *796:A 27.956 
35 *453:253 *808:A 20.2356 
36 *453:243 *806:B_N 13.7491 
37 *453:227 *786:A1 9.24915 
38 *453:219 *784:A1 13.903 
39 *453:116 *532:A1 9.24915 
40 *453:84 *502:A 9.82786 
41 *453:6 *503:A_N 16.5072 
*END

*D_NET *454 0.0623405
*CONN
*I *524:A I *D sky130_fd_sc_hd__nor2_2
*I *621:A I *D sky130_fd_sc_hd__or2_1
*I *852:A1 I *D sky130_fd_sc_hd__a21oi_1
*I *851:A1 I *D sky130_fd_sc_hd__o31a_1
*I *763:A1 I *D sky130_fd_sc_hd__a21oi_1
*I *827:A1 I *D sky130_fd_sc_hd__o21ai_0
*I *828:A1 I *D sky130_fd_sc_hd__a21oi_1
*I *832:A I *D sky130_fd_sc_hd__nand2_1
*I *826:C1 I *D sky130_fd_sc_hd__o211ai_1
*I *762:C1 I *D sky130_fd_sc_hd__a211oi_1
*I *843:A I *D sky130_fd_sc_hd__xnor2_1
*I *769:A1 I *D sky130_fd_sc_hd__a31oi_1
*I *804:A I *D sky130_fd_sc_hd__nand2_1
*I *805:A1 I *D sky130_fd_sc_hd__o32ai_1
*I *846:A I *D sky130_fd_sc_hd__nand3_1
*I *872:C1 I *D sky130_fd_sc_hd__o221ai_1
*I *873:A1 I *D sky130_fd_sc_hd__o311a_1
*I *869:A I *D sky130_fd_sc_hd__nand2_1
*I *850:B1 I *D sky130_fd_sc_hd__o211ai_1
*I *550:A1 I *D sky130_fd_sc_hd__a21oi_1
*I *537:A1 I *D sky130_fd_sc_hd__o21a_1
*I *822:A I *D sky130_fd_sc_hd__nand2_1
*I *600:A1 I *D sky130_fd_sc_hd__o21ai_0
*I *900:A0 I *D sky130_fd_sc_hd__mux2i_1
*I *685:D1 I *D sky130_fd_sc_hd__o2111ai_1
*I *693:A I *D sky130_fd_sc_hd__or4_1
*I *780:A I *D sky130_fd_sc_hd__maj3_1
*I *811:B1 I *D sky130_fd_sc_hd__o21ai_0
*I *710:A I *D sky130_fd_sc_hd__nor2b_1
*I *772:B1 I *D sky130_fd_sc_hd__a21o_1
*I *777:A1 I *D sky130_fd_sc_hd__o221ai_1
*I *579:A I *D sky130_fd_sc_hd__clkinv_1
*I *880:B2 I *D sky130_fd_sc_hd__o22ai_1
*I *789:A I *D sky130_fd_sc_hd__nor2_1
*I *875:A I *D sky130_fd_sc_hd__nand2_1
*I *695:A I *D sky130_fd_sc_hd__nor2b_1
*I *639:A I *D sky130_fd_sc_hd__nand2_1
*I *613:C_N I *D sky130_fd_sc_hd__nor3b_1
*I *545:A I *D sky130_fd_sc_hd__buf_4
*I *586:A I *D sky130_fd_sc_hd__nor2_1
*I *654:A1 I *D sky130_fd_sc_hd__a31oi_1
*I *511:A I *D sky130_fd_sc_hd__and2_0
*I *867:C1 I *D sky130_fd_sc_hd__o221ai_1
*I *868:A1 I *D sky130_fd_sc_hd__o21ai_0
*I *926:Q O *D sky130_fd_sc_hd__dfxtp_2
*CAP
1 *524:A 0.000326389
2 *621:A 0
3 *852:A1 0.000426437
4 *851:A1 0
5 *763:A1 0
6 *827:A1 0
7 *828:A1 0.000146464
8 *832:A 1.99394e-05
9 *826:C1 0.000359576
10 *762:C1 0
11 *843:A 8.3672e-05
12 *769:A1 0.000335091
13 *804:A 7.07867e-05
14 *805:A1 0.00041104
15 *846:A 1.96723e-05
16 *872:C1 9.49719e-05
17 *873:A1 0
18 *869:A 1.96582e-05
19 *850:B1 1.08986e-05
20 *550:A1 0.000122677
21 *537:A1 4.20032e-05
22 *822:A 0.000111953
23 *600:A1 0
24 *900:A0 0
25 *685:D1 0.000148525
26 *693:A 0.000138916
27 *780:A 5.38656e-05
28 *811:B1 2.60682e-05
29 *710:A 0.000729692
30 *772:B1 5.70625e-05
31 *777:A1 1.47196e-05
32 *579:A 0
33 *880:B2 0
34 *789:A 0.000263007
35 *875:A 8.28586e-05
36 *695:A 0
37 *639:A 9.20093e-05
38 *613:C_N 0.000138098
39 *545:A 0
40 *586:A 0.000148628
41 *654:A1 0
42 *511:A 0
43 *867:C1 5.77719e-05
44 *868:A1 0
45 *926:Q 0.000916907
46 *454:599 0.000443227
47 *454:571 0.000393512
48 *454:559 0.000232035
49 *454:542 0.000431875
50 *454:538 0.000123765
51 *454:531 0.00016422
52 *454:514 0.000305392
53 *454:497 0.000580267
54 *454:469 0.000704634
55 *454:456 0.000341052
56 *454:436 0.000335679
57 *454:432 0.000430357
58 *454:430 0.000429959
59 *454:419 0.000929491
60 *454:398 0.000983334
61 *454:396 0.000453432
62 *454:368 0.000523089
63 *454:355 0.000526765
64 *454:345 0.000531779
65 *454:334 0.00033084
66 *454:330 0.00162595
67 *454:311 0.00179199
68 *454:276 0.000417543
69 *454:237 0.00112363
70 *454:218 0.00111315
71 *454:212 0.00128931
72 *454:191 0.000716628
73 *454:153 0.000474171
74 *454:149 0.000701758
75 *454:133 0.000685062
76 *454:126 0.000238185
77 *454:118 0.000390464
78 *454:103 0.000794422
79 *454:88 0.00101958
80 *454:86 0.000504449
81 *454:77 0.0008783
82 *454:53 0.000243997
83 *454:49 0.00134525
84 *454:34 0.000728927
85 *454:18 0.000177839
86 *454:10 0.000793907
87 *524:A *524:B 3.58395e-05
88 *586:A *692:A1_N 0
89 *586:A *455:66 1.41976e-05
90 *685:D1 *455:113 0.000154145
91 *710:A *455:241 8.04172e-05
92 *769:A1 *733:A 0
93 *843:A *767:A 2.99291e-05
94 *454:49 *455:22 0.000300806
95 *454:49 *455:40 6.4323e-07
96 *454:53 *455:40 1.09349e-05
97 *454:212 *776:A1 7.80448e-05
98 *454:212 *455:179 3.59934e-05
99 *454:334 *457:59 0.000115934
100 *454:345 *621:B 6.50586e-05
101 *454:345 *457:59 0.000127143
102 *454:345 *457:70 0.000604046
103 *454:398 *849:A1 2.44972e-05
104 *454:497 *455:325 1.90786e-05
105 *518:A2 *454:345 5.19897e-05
106 *518:A2 *454:355 0.000415971
107 *518:B1 *454:355 0.000353454
108 *518:B1 *454:398 4.90167e-06
109 *518:B1 *454:419 2.23363e-05
110 *537:A2 *537:A1 6.08467e-05
111 *550:B1 *550:A1 0.000125315
112 *550:B1 *454:368 0.000126643
113 *551:A2 *550:A1 2.41274e-06
114 *554:A2 *550:A1 3.99086e-06
115 *567:B *524:A 2.58616e-05
116 *569:A2 *454:334 1.65872e-05
117 *569:A2 *454:345 2.83665e-05
118 *577:A_N *789:A 1.09551e-05
119 *588:A2 *454:49 0.000181279
120 *593:A2 *454:49 0.000136838
121 *594:C1 *454:49 0.000122083
122 *600:A2 *454:334 6.50727e-05
123 *600:A2 *454:345 6.92705e-05
124 *603:A2 *524:A 0.000125695
125 *603:A2 *454:345 2.15348e-05
126 *603:B1 *524:A 0.000147065
127 *605:A *454:330 0.000316478
128 *613:A *613:C_N 6.64392e-05
129 *613:A *454:88 0
130 *614:A2 *454:77 5.69128e-05
131 *623:A1 *454:330 2.11728e-05
132 *623:A3 *454:330 5.36658e-05
133 *626:B1 *454:330 0.000205892
134 *627:A *550:A1 0.000131529
135 *627:A *822:A 0.000157773
136 *627:A *454:368 0.000366331
137 *631:B1 *454:49 2.99059e-06
138 *638:B1 *454:126 9.12416e-06
139 *640:A2 *454:191 9.54447e-06
140 *640:A2 *454:212 1.41291e-05
141 *641:A2 *454:103 0.000377259
142 *641:A2 *454:118 9.97706e-05
143 *641:B1 *613:C_N 0
144 *641:B1 *454:88 0
145 *641:B1 *454:103 0.000217951
146 *643:B1 *454:77 3.29176e-06
147 *644:A2 *454:49 6.64671e-06
148 *644:A2 *454:77 4.40913e-05
149 *650:B1 *586:A 4.88171e-05
150 *656:A *454:34 0.000265216
151 *656:A *454:49 0.000118166
152 *657:A2 *454:49 0.000176095
153 *657:A2 *454:53 0.000101747
154 *657:C1 *454:49 1.5714e-05
155 *680:A *639:A 9.12416e-06
156 *681:C *454:212 9.73218e-05
157 *682:B *454:86 0.000256037
158 *689:A2 *454:77 2.79771e-05
159 *693:C *693:A 6.46815e-05
160 *693:D *693:A 4.44565e-05
161 *693:D *454:77 2.86353e-06
162 *693:D *454:88 1.18194e-05
163 *693:D *454:276 5.58327e-05
164 *694:B *685:D1 1.65872e-05
165 *696:B *454:212 0.000141217
166 *699:A *454:212 1.5714e-05
167 *700:A2 *454:212 5.55626e-05
168 *700:C1 *780:A 1.52231e-05
169 *700:C1 *454:212 1.85244e-05
170 *719:B2 *454:419 3.36233e-05
171 *722:A *710:A 4.31485e-06
172 *723:A1 *710:A 0.000175174
173 *729:B *454:436 0.000283311
174 *730:B *872:C1 0
175 *735:A1 *872:C1 0.000309159
176 *739:A1 *454:419 1.61197e-05
177 *739:A2 *454:398 0.000124586
178 *739:B1 *454:419 1.91246e-05
179 *740:A1 *454:497 7.70344e-05
180 *747:A *454:88 0
181 *757:A2 *693:A 4.22012e-05
182 *760:B *826:C1 7.13655e-06
183 *763:A2 *454:571 1.07248e-05
184 *763:B1 *454:538 6.92705e-05
185 *769:A2 *769:A1 2.0945e-05
186 *769:A3 *826:C1 0.000274721
187 *769:A3 *454:531 0.000107496
188 *769:A3 *454:538 0.000213725
189 *769:A3 *454:542 3.8122e-05
190 *769:A3 *454:559 1.64789e-05
191 *771:B *710:A 0.000372723
192 *771:B *454:237 0.000454038
193 *776:A3 *454:133 0.000382292
194 *776:A3 *454:149 0
195 *776:B2 *777:A1 8.63207e-06
196 *776:B2 *454:191 4.58907e-05
197 *776:B2 *454:212 5.66371e-05
198 *777:B1 *454:191 2.57986e-05
199 *777:B2 *454:191 6.36477e-05
200 *777:C1 *454:191 0.000263135
201 *777:C1 *454:212 0.000167692
202 *788:B *875:A 3.39453e-05
203 *789:B *789:A 6.50586e-05
204 *790:A2 *789:A 0.000111722
205 *793:B2 *710:A 2.82171e-06
206 *799:B1 *454:149 0.000196557
207 *805:A2 *805:A1 6.8305e-06
208 *807:A2 *804:A 9.36432e-06
209 *807:B1 *804:A 0.000143918
210 *807:B1 *454:469 0.000159038
211 *819:A1 *710:A 0.000126199
212 *822:B *822:A 2.51444e-05
213 *822:B *454:368 0.000105199
214 *825:A1 *805:A1 2.16355e-05
215 *826:A1 *826:C1 0
216 *827:A2 *454:571 1.07248e-05
217 *828:B1 *828:A1 0.000225943
218 *828:B1 *832:A 3.13805e-06
219 *828:B1 *454:571 6.08467e-05
220 *831:A2 *828:A1 0.000267394
221 *833:A2 *828:A1 3.74146e-05
222 *833:A2 *454:571 2.16355e-05
223 *833:B1 *828:A1 1.37669e-05
224 *833:B1 *454:571 0.000346097
225 *833:C1 *804:A 7.18683e-06
226 *833:C1 *828:A1 0.000230324
227 *844:A2 *454:432 8.45919e-06
228 *844:A2 *454:436 5.09325e-05
229 *844:A2 *454:497 1.77537e-06
230 *844:B1 *843:A 2.41274e-06
231 *846:B *846:A 4.76161e-06
232 *846:B *454:456 0.000118917
233 *846:C *454:436 5.85383e-05
234 *847:A1 *454:432 0.000106778
235 *847:A1 *454:456 6.3657e-05
236 *847:C1 *454:456 1.50924e-05
237 *847:C1 *454:469 0.000413994
238 *848:A2 *869:A 9.95922e-06
239 *848:A2 *454:419 1.4106e-05
240 *848:A2 *454:430 0.000321736
241 *848:B1 *454:430 8.51503e-05
242 *849:A2 *850:B1 7.08723e-06
243 *849:A2 *454:398 6.85861e-07
244 *851:A2 *852:A1 1.91246e-05
245 *851:A2 *454:599 3.12828e-05
246 *851:A3 *454:398 2.86395e-05
247 *861:A2 *454:419 1.5714e-05
248 *866:A *454:49 1.5714e-05
249 *867:A2 *454:34 7.92757e-06
250 *867:B1 *454:18 0
251 *867:B2 *454:18 0
252 *868:B1 *867:C1 6.50586e-05
253 *870:A *822:A 2.57986e-05
254 *870:B *454:419 0.000157819
255 *871:A1 *454:419 0.000107496
256 *871:A2 *454:419 0.000592366
257 *871:B1 *454:419 0.000158357
258 *871:C1 *454:419 6.08467e-05
259 *872:A1 *872:C1 0
260 *873:B1 *872:C1 0.000105683
261 *875:B *875:A 1.4581e-05
262 *875:B *454:153 1.41976e-05
263 *876:B *454:149 0
264 *878:A1 *454:212 3.86919e-05
265 *880:A1 *875:A 9.35846e-05
266 *880:A2 *454:149 4.36349e-05
267 *881:A2 *454:212 0
268 *881:B1 *639:A 4.00463e-05
269 *881:B1 *454:126 4.50199e-05
270 *881:B1 *454:191 0.000124009
271 *882:C1 *454:212 0.000174308
272 *885:A2 *454:149 2.14842e-06
273 *885:A2 *454:153 9.32809e-06
274 *899:B *454:311 2.69064e-05
275 *901:B *454:311 0.000128168
276 *20:27 *454:330 6.1501e-05
277 *26:16 *769:A1 4.5598e-05
278 *26:28 *454:218 0
279 *28:20 *454:77 8.82033e-05
280 *28:54 *454:88 5.50788e-05
281 *28:54 *454:276 0.000155293
282 *30:12 *867:C1 6.50586e-05
283 *30:12 *454:18 7.41203e-05
284 *30:79 *613:C_N 0.000326884
285 *30:79 *454:103 6.9202e-05
286 *30:83 *639:A 3.64929e-05
287 *30:116 *454:118 1.92172e-05
288 *30:116 *454:126 0.000267404
289 *30:131 *454:126 2.80656e-05
290 *30:131 *454:133 9.90116e-05
291 *30:318 *454:218 5.31961e-05
292 *32:98 *454:311 0
293 *37:18 *693:A 8.97492e-06
294 *37:18 *454:86 6.08467e-05
295 *37:18 *454:88 2.86829e-05
296 *37:18 *454:276 4.54703e-05
297 *37:44 *693:A 1.0017e-05
298 *37:52 *693:A 1.37566e-05
299 *38:88 *454:49 2.51714e-05
300 *38:96 *454:34 5.04829e-06
301 *38:96 *454:49 5.12499e-05
302 *38:182 *780:A 0.000104028
303 *38:182 *454:212 2.88687e-05
304 *40:26 *454:345 0.000110757
305 *40:26 *454:355 0.000152521
306 *40:35 *454:355 4.73598e-05
307 *40:95 *769:A1 9.07951e-05
308 *40:95 *454:514 2.56795e-05
309 *40:152 *805:A1 0.000122978
310 *40:163 *805:A1 8.72115e-06
311 *40:360 *811:B1 1.22858e-05
312 *40:360 *454:237 2.57465e-06
313 *40:647 *454:49 2.2466e-06
314 *40:647 *454:53 9.57557e-06
315 *40:662 *454:49 3.16908e-05
316 *44:61 *537:A1 3.82228e-05
317 *44:124 *454:497 4.73228e-05
318 *44:126 *454:432 0.000141396
319 *44:126 *454:436 0.000102541
320 *44:126 *454:497 0.000191148
321 *44:151 *454:456 1.04731e-05
322 *44:151 *454:469 3.05031e-05
323 *44:165 *710:A 8.43847e-06
324 *44:294 *769:A1 8.04172e-05
325 *44:294 *454:514 0.000444884
326 *49:95 *850:B1 9.12416e-06
327 *49:104 *850:B1 1.10793e-05
328 *49:104 *454:398 4.05046e-05
329 *56:177 *685:D1 6.27718e-05
330 *56:177 *454:276 7.28994e-06
331 *56:179 *454:88 3.82939e-05
332 *56:181 *454:88 5.75084e-05
333 *56:189 *454:88 7.08723e-06
334 *56:397 *872:C1 6.73706e-05
335 *56:422 *710:A 1.98531e-06
336 *56:501 *710:A 7.86825e-06
337 *56:550 *805:A1 0.000148017
338 *56:584 *454:514 0.000311094
339 *56:624 *852:A1 0.000112892
340 *57:10 *454:10 0.000150147
341 *57:10 *454:18 2.95757e-05
342 *57:10 *454:34 6.08467e-05
343 *57:42 *454:10 0.000520288
344 *57:42 *454:330 7.76179e-06
345 *57:178 *454:396 0.000507756
346 *59:46 *454:49 9.23628e-05
347 *59:344 *710:A 0
348 *61:24 *454:330 0.000175666
349 *62:12 *454:53 7.04109e-05
350 *62:73 *454:218 2.29165e-05
351 *70:6 *454:133 0.000113302
352 *70:10 *454:126 0.000169173
353 *70:10 *454:133 5.2472e-05
354 *72:28 *789:A 5.32954e-05
355 *72:28 *454:149 0
356 *72:34 *454:149 0.000110986
357 *77:8 *586:A 1.43983e-05
358 *83:12 *454:53 6.84784e-06
359 *89:14 *524:A 1.5254e-05
360 *89:16 *524:A 3.31882e-05
361 *89:16 *454:330 6.28227e-05
362 *89:53 *524:A 8.84112e-05
363 *95:8 *685:D1 3.31745e-05
364 *95:124 *454:355 0.000485889
365 *107:18 *780:A 5.21584e-05
366 *126:14 *875:A 6.36477e-05
367 *131:20 *613:C_N 0
368 *131:20 *685:D1 0.00025527
369 *131:20 *454:88 0
370 *138:20 *454:77 0
371 *138:20 *454:149 0.000177461
372 *138:103 *454:53 3.31733e-05
373 *139:12 *454:53 1.44611e-05
374 *146:20 *454:34 7.98171e-06
375 *146:20 *454:49 0.00015318
376 *149:14 *454:10 0.000663293
377 *149:14 *454:18 0.000195154
378 *168:14 *454:218 0
379 *184:10 *454:126 0
380 *184:10 *454:191 0
381 *184:10 *454:212 2.77419e-05
382 *196:10 *454:571 2.87468e-05
383 *196:24 *769:A1 7.02178e-05
384 *199:12 *710:A 0.000122382
385 *199:16 *710:A 5.60804e-05
386 *204:109 *828:A1 7.54269e-06
387 *209:27 *710:A 0.000285724
388 *209:27 *454:218 0.000445741
389 *210:14 *710:A 4.60375e-07
390 *218:84 *805:A1 4.23858e-05
391 *218:84 *454:571 0.000294978
392 *222:10 *772:B1 0
393 *236:20 *454:88 0.000345116
394 *237:34 *454:396 0.000504831
395 *239:23 *454:237 8.61187e-05
396 *244:14 *772:B1 2.21115e-05
397 *249:34 *454:514 1.39304e-05
398 *256:14 *826:C1 5.62139e-05
399 *262:10 *454:191 5.47232e-06
400 *263:20 *875:A 8.01157e-05
401 *263:54 *454:436 5.22654e-06
402 *274:31 *789:A 3.20011e-05
403 *274:31 *454:153 2.91736e-05
404 *286:16 *811:B1 3.17924e-05
405 *286:16 *454:237 9.85296e-05
406 *310:16 *822:A 2.16355e-05
407 *310:16 *852:A1 0.000107131
408 *310:16 *454:398 0.00048604
409 *310:16 *454:599 3.3238e-05
410 *317:10 *826:C1 6.61829e-06
411 *334:12 *454:419 1.61631e-05
412 *334:12 *454:430 0.000212123
413 *354:10 *867:C1 4.31703e-05
414 *371:26 *454:218 0.000159671
415 *397:61 *454:218 1.24546e-05
416 *397:107 *843:A 5.49916e-05
417 *397:107 *454:469 9.44796e-05
418 *397:107 *454:531 8.75317e-05
419 *417:59 *454:345 1.65872e-05
420 *419:43 *454:218 2.56038e-06
421 *422:38 *613:C_N 0
422 *422:139 *822:A 7.99851e-05
423 *429:98 *843:A 5.49916e-05
424 *429:98 *454:531 0.000100971
425 *430:35 *852:A1 0.00030921
426 *430:47 *852:A1 0
427 *431:6 *537:A1 5.04829e-06
428 *431:12 *537:A1 1.65872e-05
429 *446:18 *454:330 1.88422e-05
430 *453:30 *524:A 0.000162542
431 *453:30 *454:330 3.11725e-05
432 *453:243 *454:497 0
*RES
1 *926:Q *454:10 28.489 
2 *454:10 *454:18 9.29512 
3 *454:18 *868:A1 9.24915 
4 *454:18 *867:C1 11.6364 
5 *454:10 *454:34 10.7694 
6 *454:34 *511:A 9.24915 
7 *454:34 *454:49 21.179 
8 *454:49 *454:53 7.78538 
9 *454:53 *654:A1 9.24915 
10 *454:53 *586:A 12.7697 
11 *454:49 *454:77 13.2724 
12 *454:77 *545:A 9.24915 
13 *454:77 *454:86 7.44181 
14 *454:86 *454:88 8.89128 
15 *454:88 *613:C_N 18.6623 
16 *454:88 *454:103 14.6517 
17 *454:103 *639:A 20.4964 
18 *454:103 *454:118 6.3326 
19 *454:118 *454:126 10.5465 
20 *454:126 *695:A 9.24915 
21 *454:126 *454:133 6.82404 
22 *454:133 *454:149 19.7018 
23 *454:149 *454:153 2.82124 
24 *454:153 *875:A 21.635 
25 *454:153 *789:A 16.0973 
26 *454:149 *880:B2 9.24915 
27 *454:133 *579:A 9.24915 
28 *454:118 *454:191 10.1043 
29 *454:191 *777:A1 9.82786 
30 *454:191 *454:212 20.1383 
31 *454:212 *454:218 8.31726 
32 *454:218 *772:B1 14.9583 
33 *454:218 *454:237 16.1998 
34 *454:237 *710:A 25.9034 
35 *454:237 *811:B1 14.543 
36 *454:212 *780:A 15.7888 
37 *454:86 *454:276 3.90826 
38 *454:276 *693:A 17.7138 
39 *454:276 *685:D1 18.533 
40 *926:Q *454:311 23.924 
41 *454:311 *900:A0 13.7491 
42 *454:311 *454:330 34.0747 
43 *454:330 *454:334 5.778 
44 *454:334 *600:A1 9.24915 
45 *454:334 *454:345 11.4538 
46 *454:345 *454:355 16.5325 
47 *454:355 *822:A 17.5503 
48 *454:355 *454:368 7.23027 
49 *454:368 *537:A1 15.0271 
50 *454:368 *550:A1 17.135 
51 *454:368 *454:396 7.47587 
52 *454:396 *454:398 9.30653 
53 *454:398 *850:B1 14.1278 
54 *454:398 *454:419 19.6375 
55 *454:419 *869:A 9.82786 
56 *454:419 *454:430 11.324 
57 *454:430 *454:432 3.07775 
58 *454:432 *454:436 11.7303 
59 *454:436 *873:A1 9.24915 
60 *454:436 *872:C1 13.903 
61 *454:432 *454:456 7.44181 
62 *454:456 *846:A 9.82786 
63 *454:456 *454:469 7.98147 
64 *454:469 *805:A1 26.5059 
65 *454:469 *804:A 11.6605 
66 *454:430 *454:497 7.89992 
67 *454:497 *769:A1 20.0816 
68 *454:497 *454:514 4.03059 
69 *454:514 *843:A 15.959 
70 *454:514 *454:531 7.81762 
71 *454:531 *762:C1 9.24915 
72 *454:531 *454:538 2.38721 
73 *454:538 *454:542 1.85672 
74 *454:542 *826:C1 24.435 
75 *454:542 *454:559 0.578717 
76 *454:559 *454:571 17.8575 
77 *454:571 *832:A 9.82786 
78 *454:571 *828:A1 16.0973 
79 *454:559 *827:A1 9.24915 
80 *454:538 *763:A1 9.24915 
81 *454:396 *454:599 0.793864 
82 *454:599 *851:A1 13.7491 
83 *454:599 *852:A1 21.7112 
84 *454:345 *621:A 9.24915 
85 *454:330 *524:A 24.6096 
*END

*D_NET *455 0.0592157
*CONN
*I *898:A0 I *D sky130_fd_sc_hd__mux2i_1
*I *865:B_N I *D sky130_fd_sc_hd__nor2b_1
*I *546:A I *D sky130_fd_sc_hd__buf_4
*I *649:B1 I *D sky130_fd_sc_hd__a21oi_1
*I *774:A1 I *D sky130_fd_sc_hd__a21bo_1
*I *753:B2 I *D sky130_fd_sc_hd__o22ai_1
*I *679:A I *D sky130_fd_sc_hd__nand2_1
*I *755:B1 I *D sky130_fd_sc_hd__o21ai_0
*I *717:A I *D sky130_fd_sc_hd__nor2b_1
*I *765:A I *D sky130_fd_sc_hd__nand2_1
*I *537:B1 I *D sky130_fd_sc_hd__o21a_1
*I *486:A I *D sky130_fd_sc_hd__nor2_1
*I *524:B I *D sky130_fd_sc_hd__nor2_2
*I *621:B I *D sky130_fd_sc_hd__or2_1
*I *598:A I *D sky130_fd_sc_hd__or2_0
*I *704:A1 I *D sky130_fd_sc_hd__o22a_1
*I *849:A1 I *D sky130_fd_sc_hd__a21oi_1
*I *733:A I *D sky130_fd_sc_hd__nand2_1
*I *547:A I *D sky130_fd_sc_hd__and2_1
*I *707:A_N I *D sky130_fd_sc_hd__nand2b_1
*I *762:A1 I *D sky130_fd_sc_hd__a211oi_1
*I *767:A I *D sky130_fd_sc_hd__nor2_1
*I *844:A1 I *D sky130_fd_sc_hd__a21oi_1
*I *715:B I *D sky130_fd_sc_hd__nand2b_1
*I *812:B1 I *D sky130_fd_sc_hd__a21oi_1
*I *813:A1 I *D sky130_fd_sc_hd__a311oi_1
*I *773:B2 I *D sky130_fd_sc_hd__o221ai_1
*I *876:A I *D sky130_fd_sc_hd__nor3_1
*I *877:A1 I *D sky130_fd_sc_hd__a31oi_1
*I *879:A1 I *D sky130_fd_sc_hd__o21ai_0
*I *776:A1 I *D sky130_fd_sc_hd__a32oi_1
*I *779:A I *D sky130_fd_sc_hd__nor2b_1
*I *678:A1 I *D sky130_fd_sc_hd__o22ai_1
*I *677:A_N I *D sky130_fd_sc_hd__nand2b_1
*I *683:B1 I *D sky130_fd_sc_hd__a21oi_1
*I *691:A1 I *D sky130_fd_sc_hd__a21oi_1
*I *692:A1_N I *D sky130_fd_sc_hd__o2bb2ai_1
*I *646:A1 I *D sky130_fd_sc_hd__a21oi_1
*I *648:A I *D sky130_fd_sc_hd__and2_1
*I *927:Q O *D sky130_fd_sc_hd__dfxtp_2
*CAP
1 *898:A0 0.000379276
2 *865:B_N 0
3 *546:A 1.82638e-05
4 *649:B1 0
5 *774:A1 5.39298e-05
6 *753:B2 0.000119121
7 *679:A 0.000512024
8 *755:B1 4.43619e-05
9 *717:A 0.000185027
10 *765:A 1.47608e-05
11 *537:B1 0.000142629
12 *486:A 0.000182874
13 *524:B 0.000808872
14 *621:B 9.80309e-05
15 *598:A 1.59894e-05
16 *704:A1 0
17 *849:A1 0.000144142
18 *733:A 0.000310529
19 *547:A 0.000302087
20 *707:A_N 3.46448e-05
21 *762:A1 0.000182841
22 *767:A 0.000647831
23 *844:A1 8.40162e-05
24 *715:B 0.00014694
25 *812:B1 0
26 *813:A1 0.000138327
27 *773:B2 4.49702e-05
28 *876:A 0
29 *877:A1 4.24022e-05
30 *879:A1 0
31 *776:A1 0.000213729
32 *779:A 0.000276087
33 *678:A1 0.000172866
34 *677:A_N 0
35 *683:B1 1.47608e-05
36 *691:A1 2.63389e-05
37 *692:A1_N 3.5247e-05
38 *646:A1 1.3671e-05
39 *648:A 0
40 *927:Q 0.000130025
41 *455:555 0.00120968
42 *455:465 0.000906903
43 *455:456 0.00013469
44 *455:447 0.00018879
45 *455:443 0.00057018
46 *455:439 0.000846988
47 *455:424 0.00138543
48 *455:391 0.00133568
49 *455:389 0.000634033
50 *455:383 0.000752354
51 *455:359 0.00058832
52 *455:353 0.000509362
53 *455:342 0.000368362
54 *455:325 0.00109373
55 *455:298 0.00155252
56 *455:271 0.00128935
57 *455:260 0.000152509
58 *455:245 0.000230567
59 *455:241 0.00109417
60 *455:224 0.000726379
61 *455:220 0.000873451
62 *455:200 0.000186764
63 *455:187 0.00033526
64 *455:179 0.00100804
65 *455:164 0.000881949
66 *455:143 0.000628231
67 *455:141 0.000248727
68 *455:113 0.000438374
69 *455:94 0.000430264
70 *455:90 0.000494404
71 *455:81 0.000414421
72 *455:66 0.00049058
73 *455:58 0.000249729
74 *455:47 0.00011867
75 *455:40 0.000480963
76 *455:22 0.00102348
77 *455:14 0.00126092
78 *455:8 0.00117383
79 *646:A1 *457:136 4.80635e-06
80 *898:A0 *898:A1 0.000118166
81 *455:47 *592:A_N 3.73237e-05
82 *455:47 *457:127 4.56831e-05
83 *455:47 *457:136 0.00027329
84 *455:58 *457:127 4.0752e-05
85 *455:66 *536:A 0.000103123
86 *498:B *486:A 0.000135617
87 *524:A *524:B 3.58395e-05
88 *537:A2 *537:B1 2.16355e-05
89 *539:A1 *486:A 1.88563e-05
90 *547:B *547:A 4.76161e-06
91 *549:B *455:141 6.08467e-05
92 *550:B1 *537:B1 7.83931e-05
93 *557:A *779:A 5.03545e-06
94 *567:B *524:B 7.01935e-06
95 *578:A *455:298 2.65667e-05
96 *578:B *455:298 2.16355e-05
97 *580:A1 *455:298 1.5613e-05
98 *584:A_N *455:22 2.41274e-06
99 *586:A *692:A1_N 0
100 *586:A *455:66 1.41976e-05
101 *592:B *455:47 7.43496e-05
102 *601:A *524:B 1.75816e-05
103 *602:A1 *524:B 0.000133883
104 *602:B1 *524:B 2.58757e-05
105 *603:A1 *537:B1 5.42756e-05
106 *603:A1 *598:A 6.50586e-05
107 *603:A1 *455:456 0.000415515
108 *611:A2 *524:B 1.60687e-05
109 *640:A2 *455:187 7.72718e-05
110 *640:A2 *455:220 0.000112488
111 *640:B1 *779:A 5.26705e-05
112 *642:A1 *455:22 0.000136817
113 *642:A2 *455:22 2.77625e-06
114 *643:A2 *455:22 7.2002e-05
115 *644:A1 *546:A 6.27782e-05
116 *644:A1 *455:40 0.000154145
117 *649:A1 *455:66 1.07248e-05
118 *651:B *455:40 0.000105589
119 *653:A1 *455:66 3.31733e-05
120 *659:A1 *455:40 0.000160657
121 *659:B1 *546:A 2.16355e-05
122 *677:B *678:A1 4.19797e-05
123 *677:B *455:113 9.12416e-06
124 *680:A *774:A1 0.000142194
125 *680:A *455:141 6.50727e-05
126 *681:B *779:A 2.02035e-05
127 *681:B *455:164 8.60392e-05
128 *683:A1 *683:B1 6.08467e-05
129 *683:A2 *683:B1 6.08467e-05
130 *684:A2 *678:A1 0.000346117
131 *684:A2 *455:113 0.000177565
132 *685:C1 *779:A 7.24318e-05
133 *685:C1 *455:113 5.04829e-06
134 *685:D1 *455:113 0.000154145
135 *691:A2 *455:90 0.000303777
136 *692:B1 *691:A1 1.95055e-05
137 *692:B1 *692:A1_N 0
138 *692:B1 *455:81 5.86632e-05
139 *692:B2 *691:A1 0
140 *692:B2 *692:A1_N 0
141 *692:B2 *455:81 2.0476e-05
142 *692:B2 *455:90 0.000320063
143 *692:B2 *455:141 0.0001651
144 *693:D *455:81 1.80647e-05
145 *704:A2 *486:A 0.000277603
146 *704:A2 *455:447 1.5714e-05
147 *704:B2 *486:A 7.63346e-05
148 *704:B2 *455:447 7.93531e-05
149 *704:B2 *455:456 0.000114584
150 *705:A3 *455:456 4.57454e-05
151 *707:B *547:A 2.64116e-05
152 *707:B *707:A_N 5.38064e-06
153 *710:A *455:241 8.04172e-05
154 *717:B_N *455:353 0.000100426
155 *717:B_N *455:383 7.86884e-05
156 *718:A *707:A_N 1.09572e-05
157 *718:A *455:359 7.50803e-05
158 *718:C *455:359 6.08467e-05
159 *719:C1 *733:A 6.51628e-05
160 *719:C1 *767:A 0.000160617
161 *719:C1 *455:325 1.93033e-05
162 *723:A1 *679:A 0.00015361
163 *735:A2 *773:B2 1.5714e-05
164 *740:A1 *455:325 6.7034e-05
165 *740:A1 *455:342 6.30626e-05
166 *740:A1 *455:353 2.94067e-05
167 *740:B1 *733:A 1.5714e-05
168 *748:D_N *455:58 0
169 *749:D1 *455:113 6.41841e-05
170 *753:B1 *753:B2 5.54078e-05
171 *753:B1 *773:B2 6.08467e-05
172 *755:A2 *755:B1 2.02035e-05
173 *756:A3 *755:B1 5.04829e-06
174 *758:A1 *455:220 5.84166e-05
175 *759:C1 *773:B2 1.83992e-05
176 *760:A *767:A 6.08467e-05
177 *760:B *767:A 2.16355e-05
178 *766:C *455:391 2.79183e-05
179 *767:B *767:A 6.08467e-05
180 *769:A1 *733:A 0
181 *769:A2 *733:A 6.40304e-05
182 *769:A3 *762:A1 0.000247443
183 *771:A *779:A 1.27831e-06
184 *771:A *455:220 7.53416e-05
185 *773:A1 *773:B2 2.54323e-05
186 *773:A2 *455:260 9.49135e-05
187 *773:B1 *773:B2 1.02267e-05
188 *773:B1 *455:220 8.42542e-05
189 *774:B1_N *455:141 5.31074e-05
190 *776:A3 *776:A1 1.49589e-05
191 *777:A2 *774:A1 3.82228e-05
192 *778:A2 *455:220 0.000100517
193 *779:B_N *779:A 0.000110458
194 *785:C1 *455:298 3.46648e-05
195 *787:A *455:187 5.13902e-05
196 *789:B *679:A 8.93503e-05
197 *789:B *755:B1 3.88358e-05
198 *789:B *455:224 0
199 *789:B *455:555 0.000623409
200 *794:D *715:B 5.35941e-05
201 *813:A2 *813:A1 3.53086e-05
202 *813:A3 *813:A1 2.57847e-05
203 *813:B1 *715:B 2.41274e-06
204 *819:A1 *455:241 3.46935e-05
205 *824:A1 *455:383 6.09513e-05
206 *825:A1 *455:298 0.000113637
207 *826:A1 *767:A 0.00020502
208 *843:A *767:A 2.99291e-05
209 *844:A2 *844:A1 1.00766e-05
210 *844:B1 *767:A 1.4091e-06
211 *844:B1 *844:A1 2.58757e-05
212 *844:B1 *455:325 3.29488e-05
213 *849:B1 *849:A1 6.28634e-05
214 *851:A3 *849:A1 1.5714e-05
215 *851:A3 *455:424 4.65119e-05
216 *851:B1 *849:A1 2.56905e-05
217 *851:B1 *455:424 4.57692e-05
218 *852:A2 *765:A 6.08467e-05
219 *855:A *455:179 9.95542e-06
220 *857:B1 *455:298 0.000139817
221 *858:A2 *455:187 2.69685e-05
222 *858:B1 *455:298 2.0456e-06
223 *864:A2 *455:424 6.08467e-05
224 *866:A *455:14 2.39398e-05
225 *866:B *455:14 9.28161e-05
226 *866:B *455:22 1.76193e-05
227 *871:A2 *455:439 0
228 *875:B *455:187 0.000118166
229 *875:B *455:200 8.2376e-05
230 *876:B *455:200 6.22557e-05
231 *877:B1 *877:A1 3.81056e-05
232 *878:A1 *455:179 0.000450092
233 *878:A1 *455:220 4.0752e-05
234 *878:A2 *753:B2 0
235 *878:A2 *455:220 3.07159e-05
236 *879:A2 *776:A1 0.000106529
237 *879:A2 *455:187 0.000113968
238 *879:A2 *455:200 6.31711e-05
239 *880:B1 *455:200 6.50586e-05
240 *884:B *455:141 0.000437041
241 *884:B *455:220 4.79321e-06
242 *885:C1 *455:220 5.02782e-05
243 *891:A *898:A0 3.70541e-05
244 *891:A *455:14 7.03852e-05
245 *931:D *455:14 0
246 *20:70 *455:8 9.5664e-06
247 *26:16 *733:A 0
248 *26:16 *455:391 0
249 *27:23 *455:439 0.000106984
250 *27:23 *455:443 0.000226161
251 *28:60 *455:94 5.94319e-06
252 *28:60 *455:141 6.78439e-05
253 *28:69 *455:141 3.52879e-05
254 *28:76 *455:141 7.92416e-05
255 *28:80 *779:A 7.47095e-05
256 *28:82 *779:A 3.37762e-05
257 *30:131 *776:A1 1.07248e-05
258 *30:287 *678:A1 0.000309785
259 *30:328 *455:220 4.92437e-05
260 *32:98 *898:A0 0.000115572
261 *37:388 *755:B1 7.92757e-06
262 *38:297 *455:298 3.31745e-05
263 *39:30 *455:424 0.000602201
264 *40:26 *621:B 6.08467e-05
265 *40:110 *455:353 0.000171582
266 *40:116 *547:A 1.10051e-05
267 *40:116 *707:A_N 2.2279e-05
268 *40:116 *455:359 2.77625e-06
269 *40:127 *547:A 0.000143685
270 *40:152 *767:A 7.68538e-06
271 *40:200 *455:187 0.000192258
272 *40:249 *779:A 0.000203756
273 *40:272 *779:A 3.51505e-05
274 *40:360 *455:245 1.66626e-05
275 *40:360 *455:260 0.000156085
276 *40:360 *455:271 2.77419e-05
277 *40:608 *455:66 0.000163428
278 *40:608 *455:81 0.00025196
279 *44:61 *537:B1 6.08467e-05
280 *44:70 *455:424 1.55174e-05
281 *44:107 *455:424 5.481e-05
282 *44:229 *679:A 0.000152661
283 *48:23 *455:66 0.000130808
284 *48:108 *678:A1 4.0744e-05
285 *51:106 *455:298 0.000383444
286 *51:154 *455:447 2.31787e-05
287 *56:23 *524:B 3.62689e-05
288 *56:101 *455:66 0.000167579
289 *56:179 *455:94 3.33173e-06
290 *56:181 *455:94 9.17333e-06
291 *56:422 *679:A 0
292 *56:428 *679:A 0
293 *56:584 *455:342 1.9101e-05
294 *56:584 *455:353 0.00011594
295 *56:608 *455:353 0.000175394
296 *56:608 *455:383 0.000104719
297 *56:624 *765:A 6.08467e-05
298 *56:737 *524:B 0.00025527
299 *57:178 *537:B1 2.2894e-05
300 *57:178 *455:439 5.31632e-06
301 *57:178 *455:443 3.82614e-05
302 *57:248 *455:298 1.63256e-05
303 *59:317 *455:325 0.000138121
304 *59:344 *715:B 4.46431e-05
305 *59:356 *753:B2 9.71324e-06
306 *59:356 *455:220 8.13812e-06
307 *59:358 *455:220 7.45365e-06
308 *62:12 *455:40 8.36586e-06
309 *72:28 *455:200 0.000145868
310 *72:34 *455:200 1.07248e-05
311 *77:8 *455:66 2.77625e-06
312 *83:12 *455:22 7.32313e-05
313 *83:12 *455:40 5.23577e-05
314 *83:12 *455:47 0.000158371
315 *83:59 *779:A 0.000183022
316 *86:10 *524:B 4.44372e-05
317 *86:10 *621:B 6.62977e-05
318 *89:10 *598:A 1.43848e-05
319 *89:10 *455:456 7.92757e-06
320 *89:53 *524:B 5.06714e-05
321 *95:8 *455:113 0.000107496
322 *97:33 *679:A 0.000634305
323 *97:33 *455:164 0.000722301
324 *97:33 *455:555 0.000130515
325 *98:12 *524:B 0.000117421
326 *98:12 *621:B 0.000157717
327 *101:34 *455:443 0
328 *126:14 *877:A1 6.50727e-05
329 *126:86 *715:B 5.49916e-05
330 *126:86 *813:A1 4.76161e-06
331 *126:103 *455:298 0.000255336
332 *131:20 *455:94 0.000191271
333 *131:20 *455:113 0.00017561
334 *138:103 *455:47 6.92705e-05
335 *139:12 *455:47 6.92705e-05
336 *139:12 *455:58 0.000111708
337 *146:20 *455:22 0.00010813
338 *149:14 *455:14 0
339 *168:14 *679:A 0.000121625
340 *177:8 *779:A 2.33103e-06
341 *184:10 *776:A1 6.9787e-05
342 *199:39 *455:555 0
343 *204:8 *715:B 5.22859e-06
344 *204:88 *455:424 7.66391e-06
345 *204:109 *455:391 7.0179e-06
346 *209:27 *455:224 8.33283e-05
347 *209:27 *455:241 0.000116073
348 *225:12 *733:A 0.000210973
349 *225:12 *455:389 6.34283e-05
350 *225:12 *455:391 0.000200171
351 *237:34 *455:389 0
352 *237:34 *455:391 0
353 *237:34 *455:439 0.000683545
354 *255:6 *767:A 3.07133e-05
355 *258:8 *455:298 0
356 *263:20 *877:A1 0.000204901
357 *263:54 *455:271 7.70944e-06
358 *263:54 *455:298 0.000754722
359 *273:28 *455:298 1.5714e-05
360 *273:28 *455:325 0.000143431
361 *274:31 *455:200 5.99691e-05
362 *286:16 *755:B1 4.4486e-06
363 *286:16 *455:245 7.86825e-06
364 *286:16 *455:260 2.10569e-05
365 *286:16 *455:271 1.70577e-05
366 *286:16 *455:298 8.10547e-05
367 *354:10 *898:A0 0.000153753
368 *354:10 *455:14 0.000205702
369 *371:26 *455:220 8.75441e-06
370 *393:47 *717:A 0.000189558
371 *393:47 *455:389 0.000609947
372 *397:16 *755:B1 6.50586e-05
373 *397:61 *455:220 7.28994e-06
374 *397:61 *455:224 0.000153427
375 *397:107 *455:298 0.00013316
376 *397:107 *455:325 0.000119407
377 *397:120 *717:A 7.26606e-05
378 *419:28 *455:94 0.000109765
379 *419:28 *455:113 0.000170602
380 *422:90 *715:B 0.000251592
381 *422:90 *455:224 1.03338e-05
382 *422:90 *455:241 5.7369e-06
383 *429:98 *455:298 0.000133201
384 *429:98 *455:325 1.37385e-05
385 *430:29 *486:A 4.47179e-05
386 *430:29 *524:B 4.89251e-05
387 *430:47 *455:424 0.000208621
388 *431:12 *537:B1 1.5714e-05
389 *453:243 *717:A 2.8322e-05
390 *453:243 *455:325 0.000105313
391 *453:243 *455:342 1.4979e-05
392 *454:49 *455:22 0.000300806
393 *454:49 *455:40 6.4323e-07
394 *454:53 *455:40 1.09349e-05
395 *454:212 *776:A1 7.80448e-05
396 *454:212 *455:179 3.59934e-05
397 *454:345 *621:B 6.50586e-05
398 *454:398 *849:A1 2.44972e-05
399 *454:497 *455:325 1.90786e-05
*RES
1 *927:Q *455:8 15.5817 
2 *455:8 *455:14 23.6711 
3 *455:14 *455:22 17.3327 
4 *455:22 *455:40 23.5399 
5 *455:40 *648:A 9.24915 
6 *455:40 *455:47 5.16022 
7 *455:47 *646:A1 9.82786 
8 *455:47 *455:58 1.85672 
9 *455:58 *455:66 16.1288 
10 *455:66 *692:A1_N 10.2378 
11 *455:66 *455:81 6.48645 
12 *455:81 *691:A1 10.2378 
13 *455:81 *455:90 5.71483 
14 *455:90 *455:94 8.40826 
15 *455:94 *683:B1 14.4725 
16 *455:94 *455:113 18.3732 
17 *455:113 *677:A_N 13.7491 
18 *455:113 *678:A1 21.451 
19 *455:90 *455:141 8.70487 
20 *455:141 *455:143 4.5 
21 *455:143 *779:A 23.1148 
22 *455:143 *455:164 7.78183 
23 *455:164 *776:A1 18.6955 
24 *455:164 *455:179 10.4541 
25 *455:179 *455:187 15.0168 
26 *455:187 *879:A1 9.24915 
27 *455:187 *455:200 14.465 
28 *455:200 *877:A1 11.6605 
29 *455:200 *876:A 9.24915 
30 *455:179 *455:220 16.4014 
31 *455:220 *455:224 3.9541 
32 *455:224 *773:B2 18.7987 
33 *455:224 *455:241 0.814787 
34 *455:241 *455:245 3.7474 
35 *455:245 *813:A1 16.8959 
36 *455:245 *455:260 3.07775 
37 *455:260 *812:B1 13.7491 
38 *455:260 *455:271 1.94191 
39 *455:271 *715:B 22.2265 
40 *455:271 *455:298 40.4527 
41 *455:298 *844:A1 15.0271 
42 *455:298 *455:325 23.6843 
43 *455:325 *767:A 25.7816 
44 *455:325 *455:342 1.41674 
45 *455:342 *762:A1 16.691 
46 *455:342 *455:353 5.56926 
47 *455:353 *455:359 8.57513 
48 *455:359 *707:A_N 10.7442 
49 *455:359 *547:A 16.0973 
50 *455:353 *455:383 7.993 
51 *455:383 *455:389 12.7408 
52 *455:389 *455:391 4.32351 
53 *455:391 *733:A 21.6583 
54 *455:391 *455:424 26.2926 
55 *455:424 *849:A1 16.9274 
56 *455:424 *455:439 4.52778 
57 *455:439 *455:443 4.29831 
58 *455:443 *455:447 6.12437 
59 *455:447 *704:A1 9.24915 
60 *455:447 *455:456 5.18434 
61 *455:456 *598:A 9.97254 
62 *455:456 *455:465 4.5 
63 *455:465 *621:B 17.5503 
64 *455:465 *524:B 39.0857 
65 *455:443 *486:A 20.3888 
66 *455:439 *537:B1 19.7168 
67 *455:389 *765:A 14.4725 
68 *455:383 *717:A 22.0531 
69 *455:241 *455:555 2.33997 
70 *455:555 *755:B1 18.6352 
71 *455:555 *679:A 22.0617 
72 *455:220 *753:B2 16.6193 
73 *455:141 *774:A1 11.0817 
74 *455:58 *649:B1 9.24915 
75 *455:22 *546:A 14.4725 
76 *455:14 *865:B_N 9.24915 
77 *455:8 *898:A0 25.9975 
*END

*D_NET *456 0.00105014
*CONN
*I *548:A I *D sky130_fd_sc_hd__buf_4
*I *896:A0 I *D sky130_fd_sc_hd__mux2i_1
*I *928:Q O *D sky130_fd_sc_hd__dfxtp_1
*CAP
1 *548:A 0
2 *896:A0 0.000140384
3 *928:Q 0.000165631
4 *456:12 0.000306015
5 *896:A0 *896:A1 2.30636e-05
6 *897:A *896:A0 0.000160047
7 *897:B *896:A0 6.27782e-05
8 *40:12 *456:12 1.59362e-06
9 *435:16 *896:A0 0.00016195
10 *435:20 *456:12 2.86829e-05
*RES
1 *928:Q *456:12 21.635 
2 *456:12 *896:A0 13.8548 
3 *456:12 *548:A 9.24915 
*END

*D_NET *457 0.02504
*CONN
*I *603:B2 I *D sky130_fd_sc_hd__a22o_1
*I *552:A I *D sky130_fd_sc_hd__buf_4
*I *615:A1 I *D sky130_fd_sc_hd__o311ai_0
*I *614:B1 I *D sky130_fd_sc_hd__o21ai_0
*I *574:B2 I *D sky130_fd_sc_hd__a221oi_1
*I *583:B1 I *D sky130_fd_sc_hd__a21oi_1
*I *590:B_N I *D sky130_fd_sc_hd__nor2b_1
*I *655:A I *D sky130_fd_sc_hd__nor3b_1
*I *674:A1 I *D sky130_fd_sc_hd__o31a_1
*I *584:B I *D sky130_fd_sc_hd__nand2b_1
*I *689:A1 I *D sky130_fd_sc_hd__o21ai_0
*I *536:A I *D sky130_fd_sc_hd__buf_4
*I *513:A I *D sky130_fd_sc_hd__and2_0
*I *690:A I *D sky130_fd_sc_hd__nor3_1
*I *648:B I *D sky130_fd_sc_hd__and2_1
*I *592:A_N I *D sky130_fd_sc_hd__nand2b_1
*I *646:B1 I *D sky130_fd_sc_hd__a21oi_1
*I *620:B_N I *D sky130_fd_sc_hd__nor2b_1
*I *600:B1 I *D sky130_fd_sc_hd__o21ai_0
*I *894:A0 I *D sky130_fd_sc_hd__mux2i_1
*I *569:A1 I *D sky130_fd_sc_hd__o21ai_0
*I *570:A1 I *D sky130_fd_sc_hd__o21ai_0
*I *929:Q O *D sky130_fd_sc_hd__dfxtp_1
*CAP
1 *603:B2 0
2 *552:A 0.00030693
3 *615:A1 0.000248327
4 *614:B1 0
5 *574:B2 0.000128173
6 *583:B1 0
7 *590:B_N 5.76675e-05
8 *655:A 3.5459e-05
9 *674:A1 0.000103745
10 *584:B 0.000357816
11 *689:A1 4.13009e-05
12 *536:A 0.000106179
13 *513:A 0.000135399
14 *690:A 0
15 *648:B 0
16 *592:A_N 0.000241276
17 *646:B1 0
18 *620:B_N 0.00052652
19 *600:B1 0
20 *894:A0 0.000121234
21 *569:A1 0
22 *570:A1 0
23 *929:Q 0.000192366
24 *457:228 0.000311529
25 *457:154 0.000343904
26 *457:136 0.000297452
27 *457:127 0.000207117
28 *457:125 0.000544456
29 *457:121 0.000390967
30 *457:119 0.000496341
31 *457:117 0.000824635
32 *457:115 0.000543791
33 *457:105 0.00078146
34 *457:84 0.000825255
35 *457:82 0.000413924
36 *457:76 0.000674934
37 *457:74 0.000217736
38 *457:72 0.000406983
39 *457:70 0.000595341
40 *457:59 0.000327018
41 *457:37 0.000191089
42 *457:24 9.69395e-05
43 *457:16 0.000315957
44 *457:10 0.000304708
45 *556:A *457:125 2.652e-05
46 *556:A *457:127 3.6367e-05
47 *558:B1 *552:A 6.08467e-05
48 *567:B *457:10 0.00012171
49 *569:A2 *894:A0 1.09551e-05
50 *569:A2 *457:24 3.28807e-05
51 *569:A2 *457:37 0.000194689
52 *569:A2 *457:59 0.000123971
53 *569:B1 *457:37 5.0118e-05
54 *570:A2 *457:10 0.000212583
55 *570:A2 *457:16 0.000109589
56 *570:B1 *457:24 0.00011658
57 *570:B1 *457:37 1.65872e-05
58 *570:B1 *457:59 5.62361e-05
59 *574:A2 *574:B2 6.44317e-05
60 *574:B1 *574:B2 4.54238e-05
61 *574:C1 *574:B2 7.13793e-05
62 *583:A1 *457:82 6.93602e-05
63 *584:A_N *584:B 7.89421e-05
64 *587:A1 *457:119 1.09386e-05
65 *588:A1 *584:B 3.18518e-05
66 *590:A *590:B_N 7.50803e-05
67 *590:A *655:A 0.000117181
68 *590:A *457:115 1.41976e-05
69 *592:B *592:A_N 2.84445e-05
70 *594:A1 *674:A1 0
71 *594:A2 *674:A1 2.16355e-05
72 *594:B1 *674:A1 0
73 *594:C2 *457:105 8.85178e-05
74 *594:C2 *457:115 5.79479e-06
75 *596:A2 *457:105 6.01191e-05
76 *596:A2 *457:115 0.000212805
77 *597:B1 *457:105 0.000187798
78 *613:A *513:A 1.61262e-05
79 *614:A2 *457:121 1.46079e-05
80 *614:A2 *457:125 4.94168e-05
81 *616:A1 *457:105 5.95249e-06
82 *618:A *457:70 9.75356e-05
83 *618:A *457:72 6.92647e-05
84 *618:B *552:A 8.57395e-05
85 *622:A1 *552:A 5.8911e-05
86 *623:B1 *552:A 0.000107496
87 *630:A1 *457:115 2.81262e-05
88 *630:A2 *457:115 0.000107496
89 *630:B1 *457:115 0.000175477
90 *630:B1 *457:117 4.70104e-05
91 *631:A2 *457:228 0.000203756
92 *631:B1 *584:B 5.46889e-05
93 *631:B1 *457:228 4.97617e-05
94 *634:A1 *620:B_N 2.44829e-05
95 *634:A1 *457:82 1.57696e-05
96 *634:A1 *457:84 1.82679e-05
97 *634:A1 *457:105 4.27003e-05
98 *635:A1 *590:B_N 3.03812e-05
99 *635:A1 *457:228 4.05654e-05
100 *646:A1 *457:136 4.80635e-06
101 *649:A1 *457:127 0.000160617
102 *649:A2 *457:121 3.90689e-06
103 *649:A2 *457:125 1.89195e-05
104 *652:B1 *457:125 0
105 *660:B1 *620:B_N 6.59854e-05
106 *674:B1 *674:A1 1.71476e-05
107 *674:B1 *457:119 1.96561e-05
108 *675:C1 *457:115 6.08467e-05
109 *675:D1 *674:A1 6.3657e-05
110 *690:C *457:154 0.000116764
111 *691:A2 *513:A 1.89462e-05
112 *692:A2_N *689:A1 4.37753e-05
113 *692:A2_N *457:121 3.2648e-05
114 *702:A2 *590:B_N 6.27782e-05
115 *702:A2 *655:A 4.61271e-05
116 *702:A2 *457:228 0.000151044
117 *705:A2 *574:B2 0.000116159
118 *709:A2 *615:A1 0.000403258
119 *713:A_N *615:A1 6.0699e-05
120 *748:A *457:154 0.000167076
121 *748:C *513:A 2.57847e-05
122 *748:C *457:154 7.40359e-05
123 *748:D_N *457:127 1.16357e-05
124 *748:D_N *457:154 1.41307e-05
125 *823:A1 *552:A 3.54295e-05
126 *871:A2 *615:A1 8.82902e-06
127 *890:A0 *894:A0 0.000233938
128 *890:A0 *457:37 0.000116
129 *894:S *894:A0 0.000224395
130 *895:B *894:A0 6.92705e-05
131 *20:12 *457:10 0.000195114
132 *20:70 *457:228 0.000343703
133 *28:10 *457:119 3.79352e-05
134 *28:10 *457:121 6.01649e-05
135 *30:60 *513:A 0
136 *30:169 *689:A1 0.000262261
137 *30:243 *457:82 0
138 *32:151 *620:B_N 0.00010072
139 *37:64 *674:A1 1.55025e-05
140 *38:23 *689:A1 0.000162739
141 *38:23 *457:119 3.12211e-05
142 *38:23 *457:121 3.60933e-06
143 *38:34 *457:119 7.16799e-06
144 *38:80 *590:B_N 6.08467e-05
145 *38:80 *457:115 5.51483e-06
146 *40:608 *457:125 2.652e-05
147 *40:662 *584:B 2.6524e-05
148 *48:8 *457:127 8.58541e-05
149 *48:44 *584:B 0.000312249
150 *50:20 *552:A 0.000114584
151 *51:140 *457:76 0
152 *51:140 *457:82 0
153 *56:80 *457:228 1.91246e-05
154 *57:42 *620:B_N 0
155 *59:36 *457:115 2.6524e-05
156 *59:46 *584:B 4.24629e-05
157 *59:46 *457:115 8.42331e-05
158 *59:46 *457:117 0.000340161
159 *59:46 *457:119 0.000119854
160 *64:10 *457:119 3.28202e-05
161 *75:6 *584:B 1.65872e-05
162 *77:8 *536:A 2.16355e-05
163 *80:10 *457:117 0.000291568
164 *80:10 *457:119 0.000123331
165 *81:38 *457:115 1.85244e-05
166 *81:66 *457:115 0.000176122
167 *83:12 *592:A_N 2.74378e-05
168 *86:10 *457:70 0.000111358
169 *86:10 *457:72 0.000187156
170 *86:10 *457:74 3.21591e-05
171 *86:10 *457:76 0.000352628
172 *86:10 *457:82 0.000212491
173 *88:12 *615:A1 2.18679e-05
174 *98:12 *457:70 7.77309e-06
175 *98:12 *457:72 4.58688e-05
176 *98:12 *457:74 1.5756e-05
177 *98:12 *457:76 9.79134e-05
178 *103:10 *457:125 9.35753e-06
179 *138:20 *457:127 0.000113968
180 *138:20 *457:136 6.9815e-05
181 *236:20 *513:A 0.000263364
182 *236:20 *457:154 0.000216396
183 *407:23 *615:A1 1.91246e-05
184 *407:23 *457:105 7.93318e-06
185 *417:23 *457:228 5.1493e-06
186 *417:36 *620:B_N 2.65831e-05
187 *417:51 *620:B_N 2.41483e-05
188 *417:59 *457:59 7.60278e-05
189 *417:59 *457:70 0.000567738
190 *422:38 *457:121 0
191 *453:30 *457:16 0.000156258
192 *454:334 *457:59 0.000115934
193 *454:345 *457:59 0.000127143
194 *454:345 *457:70 0.000604046
195 *455:47 *592:A_N 3.73237e-05
196 *455:47 *457:127 4.56831e-05
197 *455:47 *457:136 0.00027329
198 *455:58 *457:127 4.0752e-05
199 *455:66 *536:A 0.000103123
*RES
1 *929:Q *457:10 16.1214 
2 *457:10 *457:16 12.0778 
3 *457:16 *457:24 1.80246 
4 *457:24 *570:A1 9.24915 
5 *457:24 *457:37 4.26804 
6 *457:37 *569:A1 9.24915 
7 *457:37 *894:A0 15.5427 
8 *457:16 *457:59 6.39603 
9 *457:59 *600:B1 9.24915 
10 *457:59 *457:70 13.5713 
11 *457:70 *457:72 4.11588 
12 *457:72 *457:74 0.793864 
13 *457:74 *457:76 6.81502 
14 *457:76 *457:82 13.0139 
15 *457:82 *457:84 1.278 
16 *457:84 *620:B_N 30.5059 
17 *457:84 *457:105 11.3883 
18 *457:105 *457:115 19.0672 
19 *457:115 *457:117 6.19214 
20 *457:117 *457:119 8.2684 
21 *457:119 *457:121 3.07775 
22 *457:121 *457:125 8.82351 
23 *457:125 *457:127 5.71483 
24 *457:127 *646:B1 9.24915 
25 *457:127 *457:136 3.52053 
26 *457:136 *592:A_N 15.0122 
27 *457:136 *648:B 9.24915 
28 *457:125 *457:154 6.82404 
29 *457:154 *690:A 9.24915 
30 *457:154 *513:A 22.8808 
31 *457:121 *536:A 16.691 
32 *457:119 *689:A1 16.691 
33 *457:117 *584:B 24.2317 
34 *457:115 *674:A1 16.5704 
35 *457:105 *457:228 21.044 
36 *457:228 *655:A 11.1059 
37 *457:228 *590:B_N 11.6364 
38 *457:82 *583:B1 9.24915 
39 *457:76 *574:B2 18.5477 
40 *457:74 *614:B1 13.7491 
41 *457:72 *615:A1 21.6036 
42 *457:70 *552:A 22.0441 
43 *457:10 *603:B2 9.24915 
*END

*D_NET *458 0.000133241
*CONN
*I *565:A I *D sky130_fd_sc_hd__buf_4
*I *930:Q O *D sky130_fd_sc_hd__dfxtp_1
*CAP
1 *565:A 6.66204e-05
2 *930:Q 6.66204e-05
*RES
1 *930:Q *565:A 20.2103 
*END

*D_NET *459 0.000560755
*CONN
*I *538:A I *D sky130_fd_sc_hd__buf_4
*I *566:A I *D sky130_fd_sc_hd__buf_4
*I *931:Q O *D sky130_fd_sc_hd__dfxtp_1
*CAP
1 *538:A 0.000132837
2 *566:A 0
3 *931:Q 6.51325e-05
4 *459:8 0.00019797
5 *57:10 *538:A 0.000164815
*RES
1 *931:Q *459:8 10.9612 
2 *459:8 *566:A 9.24915 
3 *459:8 *538:A 12.7456 
*END

*D_NET *460 0.00102061
*CONN
*I *888:A0 I *D sky130_fd_sc_hd__mux2i_1
*I *568:A I *D sky130_fd_sc_hd__buf_4
*I *932:Q O *D sky130_fd_sc_hd__dfxtp_1
*CAP
1 *888:A0 0.000207386
2 *568:A 6.6591e-05
3 *932:Q 0
4 *460:4 0.000273977
5 *888:S *888:A0 0.000112361
6 *889:A *888:A0 0.00017383
7 *889:B *888:A0 6.46815e-05
8 *907:B_N *888:A0 6.46815e-05
9 *925:CLK *888:A0 2.85505e-05
10 *32:242 *888:A0 2.85505e-05
*RES
1 *932:Q *460:4 9.24915 
2 *460:4 *568:A 10.9612 
3 *460:4 *888:A0 25.6566 
*END

*D_NET *461 0.0120967
*CONN
*I *905:A0 I *D sky130_fd_sc_hd__mux2i_1
*I *499:A I *D sky130_fd_sc_hd__nand3_1
*I *835:B2 I *D sky130_fd_sc_hd__a22oi_1
*I *478:A I *D sky130_fd_sc_hd__inv_1
*I *530:A1 I *D sky130_fd_sc_hd__a31oi_1
*I *595:A I *D sky130_fd_sc_hd__nand2_1
*I *561:C1 I *D sky130_fd_sc_hd__a221o_1
*I *933:Q O *D sky130_fd_sc_hd__dfxtp_1
*CAP
1 *905:A0 0.000391552
2 *499:A 0
3 *835:B2 0.000895918
4 *478:A 0
5 *530:A1 1.90278e-05
6 *595:A 3.51376e-05
7 *561:C1 0.000115309
8 *933:Q 0.000854999
9 *461:59 0.00136562
10 *461:46 0.00140072
11 *461:36 0.00106762
12 *461:23 0.000190767
13 *461:10 0.000578756
14 *493:B1 *461:46 1.65872e-05
15 *499:B *461:46 1.07248e-05
16 *501:B *561:C1 0.000196638
17 *501:B *461:10 0.000171999
18 *501:C *461:46 2.30636e-05
19 *502:C *461:36 1.19721e-05
20 *502:C *461:46 0
21 *530:B1 *461:59 4.87301e-05
22 *532:A3 *461:59 6.64392e-05
23 *554:C1 *461:46 0.000211546
24 *561:B1 *561:C1 0.000165455
25 *562:C *461:46 5.22654e-06
26 *564:B *595:A 2.16355e-05
27 *564:B *461:36 4.23858e-05
28 *595:B *595:A 1.64789e-05
29 *599:A *461:46 0.000120749
30 *727:A *835:B2 2.6874e-05
31 *824:A2 *835:B2 3.90891e-05
32 *835:A1 *835:B2 2.352e-05
33 *835:B1 *835:B2 4.61732e-05
34 *862:A_N *461:59 2.58757e-05
35 *862:B *461:59 1.04572e-05
36 *902:B1_N *595:A 6.08467e-05
37 *902:B1_N *461:36 0.000551758
38 *905:S *905:A0 0.000225367
39 *917:D *835:B2 0
40 *923:CLK *905:A0 6.27718e-05
41 *32:82 *561:C1 0.000196638
42 *32:82 *461:10 0.000326308
43 *57:140 *461:36 0
44 *57:160 *461:46 4.3496e-05
45 *59:259 *461:59 2.77625e-06
46 *380:16 *835:B2 0.000798067
47 *380:16 *461:59 0.000343589
48 *385:40 *530:A1 1.05106e-05
49 *385:40 *461:46 0.000224292
50 *385:40 *461:59 3.53654e-05
51 *398:32 *461:46 1.34424e-05
52 *405:23 *461:46 5.66868e-06
53 *405:44 *461:36 6.61347e-05
54 *429:94 *835:B2 0
55 *453:10 *905:A0 4.04935e-05
56 *453:84 *905:A0 3.46069e-05
57 *453:84 *461:10 0.000506134
58 *453:183 *835:B2 7.42408e-05
59 *453:183 *461:59 0.000257151
*RES
1 *933:Q *461:10 25.4485 
2 *461:10 *561:C1 19.0748 
3 *461:10 *461:23 4.5 
4 *461:23 *595:A 10.5513 
5 *461:23 *461:36 6.84815 
6 *461:36 *461:46 25.7177 
7 *461:46 *530:A1 9.82786 
8 *461:46 *461:59 14.486 
9 *461:59 *478:A 9.24915 
10 *461:59 *835:B2 44.5668 
11 *461:36 *499:A 9.24915 
12 *933:Q *905:A0 37.0706 
*END

*D_NET *462 0.000184971
*CONN
*I *900:A1 I *D sky130_fd_sc_hd__mux2i_1
*I *912:X O *D sky130_fd_sc_hd__clkdlybuf4s50_1
*CAP
1 *900:A1 6.91412e-05
2 *912:X 6.91412e-05
3 *901:B *900:A1 4.66889e-05
*RES
1 *912:X *900:A1 20.3309 
*END

*D_NET *463 0.000548716
*CONN
*I *898:A1 I *D sky130_fd_sc_hd__mux2i_1
*I *911:X O *D sky130_fd_sc_hd__clkdlybuf4s50_1
*CAP
1 *898:A1 0.000182739
2 *911:X 0.000182739
3 *898:A0 *898:A1 0.000118166
4 *899:B *898:A1 6.50727e-05
*RES
1 *911:X *898:A1 23.1039 
*END

*D_NET *464 0.00139849
*CONN
*I *896:A1 I *D sky130_fd_sc_hd__mux2i_1
*I *910:X O *D sky130_fd_sc_hd__clkdlybuf4s50_1
*CAP
1 *896:A1 0.000325149
2 *910:X 0.000325149
3 *890:A0 *896:A1 0.000350332
4 *896:A0 *896:A1 2.30636e-05
5 *897:B *896:A1 0.000208627
6 *928:D *896:A1 6.08467e-05
7 *929:CLK *896:A1 4.30017e-06
8 *374:14 *896:A1 0.000101025
*RES
1 *910:X *896:A1 38.1179 
*END

*D_NET *465 0.000718284
*CONN
*I *894:A1 I *D sky130_fd_sc_hd__mux2i_1
*I *909:X O *D sky130_fd_sc_hd__clkdlybuf4s50_1
*CAP
1 *894:A1 0.000138718
2 *909:X 0.000138718
3 *32:94 *894:A1 8.79729e-05
4 *32:96 *894:A1 9.34396e-06
5 *435:20 *894:A1 0.000285796
6 *435:22 *894:A1 5.77352e-05
*RES
1 *909:X *894:A1 33.4828 
*END

*D_NET *466 0.000540476
*CONN
*I *892:A1 I *D sky130_fd_sc_hd__mux2i_1
*I *887:X O *D sky130_fd_sc_hd__clkdlybuf4s50_1
*CAP
1 *892:A1 0.000124611
2 *887:X 0.000124611
3 *892:A0 *892:A1 0.000112361
4 *893:B *892:A1 4.19199e-05
5 *20:124 *892:A1 0.000136972
*RES
1 *887:X *892:A1 23.1039 
*END

*D_NET *467 0.000175612
*CONN
*I *890:A1 I *D sky130_fd_sc_hd__mux2i_1
*I *728:X O *D sky130_fd_sc_hd__clkdlybuf4s50_1
*CAP
1 *890:A1 6.37554e-05
2 *728:X 6.37554e-05
3 *374:8 *890:A1 4.81015e-05
*RES
1 *728:X *890:A1 20.3309 
*END

*D_NET *468 0.000611896
*CONN
*I *888:A1 I *D sky130_fd_sc_hd__mux2i_1
*I *716:X O *D sky130_fd_sc_hd__clkdlybuf4s50_1
*CAP
1 *888:A1 0.000275514
2 *716:X 0.000275514
3 *716:A *888:A1 3.42853e-05
4 *925:CLK *888:A1 2.65831e-05
*RES
1 *716:X *888:A1 32.2721 
*END

*D_NET *469 0.000432774
*CONN
*I *905:A1 I *D sky130_fd_sc_hd__mux2i_1
*I *663:X O *D sky130_fd_sc_hd__clkdlybuf4s50_1
*CAP
1 *905:A1 0.000211116
2 *663:X 0.000211116
3 *453:6 *905:A1 1.05422e-05
4 *453:10 *905:A1 0
*RES
1 *663:X *905:A1 31.1629 
*END

*D_NET *470 0.000910115
*CONN
*P x_in[3] I
*I *909:A I *D sky130_fd_sc_hd__clkdlybuf4s50_1
*CAP
1 x_in[3] 0.000297507
2 *909:A 0.000297507
3 *909:A *910:A 0
4 exp_out[4] *909:A 0.000294899
5 *20:96 *909:A 2.02035e-05
*RES
1 x_in[3] *909:A 18.5541 
*END

*D_NET *471 0.000514229
*CONN
*P x_in[2] I
*I *910:A I *D sky130_fd_sc_hd__clkdlybuf4s50_1
*CAP
1 x_in[2] 0.000242165
2 *910:A 0.000242165
3 *605:A *910:A 2.98992e-05
4 *909:A *910:A 0
5 *374:14 *910:A 0
*RES
1 x_in[2] *910:A 21.8652 
*END

*D_NET *472 0.000489664
*CONN
*P x_in[1] I
*I *911:A I *D sky130_fd_sc_hd__clkdlybuf4s50_1
*CAP
1 x_in[1] 0.000215949
2 *911:A 0.000215949
3 *911:A *912:A 5.77657e-05
4 *20:33 *911:A 0
*RES
1 x_in[1] *911:A 21.6816 
*END

*D_NET *473 0.000415435
*CONN
*P x_in[0] I
*I *912:A I *D sky130_fd_sc_hd__clkdlybuf4s50_1
*CAP
1 x_in[0] 0.000144542
2 *912:A 0.000144542
3 *911:A *912:A 5.77657e-05
4 *20:33 *912:A 6.85852e-05
*RES
1 x_in[0] *912:A 18.6962 
*END

*D_NET *474 0.00104752
*CONN
*P rst I
*I *913:A I *D sky130_fd_sc_hd__clkdlybuf4s50_1
*CAP
1 rst 0.000367013
2 *913:A 0.000367013
3 exp_out[1] *913:A 0.000313496
4 *32:10 *913:A 0
*RES
1 rst *913:A 24.0617 
*END

*D_NET *475 0.000266132
*CONN
*P enable I
*I *914:A I *D sky130_fd_sc_hd__clkdlybuf4s50_1
*CAP
1 enable 0.000103089
2 *914:A 0.000103089
3 *728:A *914:A 3.97506e-05
4 *887:A *914:A 2.02035e-05
*RES
1 enable *914:A 17.8657 
*END
